rBN 3-layer slab
1.0
15.0551462173000008 0.0000000000000000 0.0000000000000000
-7.5275736112000002 13.0376828894999992 0.0000000000000000
0.0000000000000000 0.0000169606000000 10.0278787613000002
B N C
107 107 2
Cartesian
1.2519640435486619 2.1687834383127607 1.0216485623522473
0.0021052986771395 4.3513344578436701 1.0270503991456128
-1.2500654189475100 6.5212171994484960 0.9859265959685073
-2.5036270298287575 8.6926333036478809 0.9755985606327695
-3.7643760368544981 10.8648490835719969 0.9973504172145594
-5.0179289436156642 13.0373071754863421 1.0013317690292216
3.7641303098058350 2.1695797225187112 0.9984009677365966
2.5023809642716959 4.3283788930437295 1.0164872778234746
1.2715850325225300 6.5226720167481638 1.0063668489439346
0.0037155287813045 8.7046919217175471 0.9840690602546207
-1.2611676631055131 10.8685618669336428 1.0015091309594379
5.0178532781472835 0.0004235760225754 1.0054350927195708
6.2753016639746022 2.1696857377563483 0.9857619140074471
5.0190439180630726 4.3425197277479137 0.9749182668992772
3.7431398625233263 6.4965768743904340 0.9974636751754494
1.2451980673312442 10.8550732663966034 1.0188511807849772
0.0020672804269510 13.0324630583535406 1.0274569524402077
8.7833098009698567 2.1711880782780266 1.0059411851348086
7.5265757409179974 4.3468525698025067 0.9825376233307394
6.2635876759017428 6.5242244800526432 1.0019171021812880
5.0272284837176171 8.7210238639242839 1.0072000380672517
3.7688091738779335 10.8482411665152654 0.9978997910247535
2.5095247051457434 13.0326985790442524 1.0172634879113527
11.2909523913374414 2.1717494221236033 0.9994774224392832
10.0371702199353336 4.3455970724063473 1.0013865327169362
8.7805809329315530 6.5189692575285418 1.0213477969629103
7.5306457744836921 8.6928552443940941 1.0287067937382013
6.2846616355681846 10.8795014453628909 0.9870429881830152
5.0148136564767576 13.0332834702018783 0.9768128013766100
13.7990040990990614 2.1739498906797752 1.0018822309390212
-2.5083331746199389 4.3471428023309233 1.0034051649488662
-3.7618903568262358 6.5187715381106397 0.9971587446469642
-5.0145558771428149 8.6911552664990506 1.0177734742788902
-6.2698683727579807 10.8658931596850774 1.0048662060271993
0.0023285040860253 0.0042931532054834 0.9820593498526706
-0.0000269801024379 1.4486084687548391 4.3441370902672372
-1.2545873754300261 3.6214430099782184 4.3451408697454434
-2.5093100953666001 5.7943065132216702 4.3398533003484872
-3.7641265318140840 7.9673221735624882 4.3486147785460343
-5.0188941017577271 10.1403178961314673 4.3482197871255526
-6.2732977533709624 12.3133204342161928 4.3383169854170500
2.5090614261993669 1.4488509569414407 4.3491989801081248
1.2546516917386790 3.6216322440450801 4.3545306771817742
0.0001633279021637 5.7940968357567408 4.3396545604837522
-1.2546100885633706 7.9671488365946530 4.3340067384813681
-2.5094755099790871 10.1404213039302853 4.3437712234139800
-3.7641407396615008 12.3135330858235275 4.3441850214458109
5.0181754353626289 1.4491237767670222 4.3397328912792101
3.7638215194275584 3.6222516504401572 4.3480648805509086
2.5095131200519365 5.7949220593955078 4.3487223613146808
1.2556994041324996 7.9665990473397219 4.3397854868506380
0.0002951370814001 10.1402260847287486 4.3446305101312284
-1.2547951986196058 12.3136285602884445 4.3454050805089048
7.5274541074197652 1.4490415641583074 4.3393366630854153
6.2728145880930768 3.6222064965962630 4.3331357180268899
5.0182512279826659 5.7953740342913989 4.3424310185122508
3.7639982933545961 7.9673113444631873 4.3370540402821689
2.5104797647829789 10.1398471909448116 4.3500829663966600
1.2548702949487944 12.3135410177268501 4.3546504960603691
10.0369482692791614 1.4488332232486001 4.3483489814576020
8.7820194027398735 3.6218097076785098 4.3383666655724893
7.5271590214087656 5.7947238761573061 4.3436620464785642
6.2721305248148731 7.9671757193900419 4.3440328611348109
5.0181821191300235 10.1399886953282969 4.3397191624868183
3.7643424061276400 12.3134537583747026 4.3485681344757143
12.5461354078577649 1.4486693428913695 4.3436409994267819
11.2913307025048244 3.6215738825703694 4.3442308344352467
10.0364732814870710 5.7944698462627802 4.3491719743783772
8.7815442584589043 7.9672794187588432 4.3541759466864720
7.5269484568437584 10.1401065576663143 4.3388977999800442
6.2729619918751167 12.3133085589421647 4.3335566840125752
1.2545314737837112 0.7244841297254015 7.6869893486564491
0.0001217248291947 2.8972202271220953 7.6606806950027773
-1.2544624720640825 5.0698496372797974 7.6819788423680766
-2.5093517598444732 7.2428759993671141 7.7121669630698246
-3.7643539508086055 9.4160502810485323 7.6911247276413670
-5.0188515515940004 11.5891573143193849 7.6870979988012111
3.7637021128940016 0.7246650999065667 7.6871872541382089
2.5093124520360872 2.8976883768081843 7.6655584781885091
1.2549804694201878 5.0703690533935522 7.6621677713620917
0.0003877612373788 7.2427270991094970 7.7092184992026693
-1.2546993522625853 9.4159868864672251 7.7131002868033693
-2.5095486470801709 11.5891757440526604 7.6866829693734120
6.2728948784244825 0.7246799636877999 7.6823766658646191
5.0183472835173699 2.8979282622902112 7.7128381348356685
3.7639909952146384 5.0711869443584465 7.6902563988037818
2.5105855585229651 7.2437227224177319 7.6875598763819077
1.2559204354202003 9.4154753199873582 7.6844279671829883
0.0001043838143586 11.5892260512950731 7.6600841604701380
8.7822137296230860 0.7246932444575342 7.6608755862666005
7.5274485365602937 2.8978438943751121 7.7094465619924053
6.2726763266833645 5.0708637838465185 7.7131370609096779
5.0179452304114980 7.2433402590674199 7.6874924552598465
3.7641059599459261 9.4145839723862874 7.6871067311294183
2.5097992338986268 11.5890335301533227 7.6645984127243567
11.2914420677021496 0.7243907020006033 7.6912778216439444
10.0366757558221575 2.8975751812563066 7.6880164921908420
8.7819318339989305 5.0705593333699150 7.6871121009201744
7.5269671793273583 7.2430844576548266 7.6612898656886870
6.2723422716138115 9.4152441310714110 7.6820741798198888
5.0184526265309195 11.5884995130117439 7.7132663411370403
13.8005076534907278 0.7241750799906506 7.7124421888659596
12.5459479813253179 2.8971450751752723 7.6868197509439220
11.2913014525277582 5.0701533738438904 7.6862858173128057
10.0363445842184209 7.2431077188885480 7.6643744962249780
8.7815027058254032 9.4158728013664597 7.6608763529370325
7.5272590446425651 11.5888068341994650 7.7083378306392039
-0.0018584717870380 1.4498040061222746 1.0045652931336171
-1.2535137625820332 3.6251960286766440 1.0208375288935763
-2.5048674412587810 5.7968990370842146 0.9923444933005749
-3.7570334240915759 7.9677700917300598 0.9954319180917555
-5.0156781118281026 10.1402782060689969 1.0135683260010948
-6.2717969801083155 12.3148000452630786 0.9930955050315498
2.5083505332397240 1.4468556465897329 1.0150131864434009
1.2479775863351150 3.6144973082500531 1.0419087038628874
0.0078733073841343 5.8077403817229145 1.0127967247497058
-1.2415570256299100 7.9707954201790008 0.9687309199989188
-2.5088094732897495 10.1403956965557693 0.9849512208144906
-3.7628975961127993 12.3127879078363804 1.0036695236208628
5.0196404805846671 1.4461842922722448 0.9946253127481355
3.7623095968790259 3.6147886165226191 0.9948633733567182
2.4954104840072922 5.7704976533411019 1.0119134690172731
1.2828648114481671 8.0014952744035206 0.9983430505693516
-0.0059215067631860 10.1439395412688231 1.0040520717368719
-1.2543197975939344 12.3131244781015550 1.0233091807530537
7.5307993372075162 1.4424341715009470 1.0130008235361929
6.2748932234896300 3.6165007759805778 0.9658765224512681
5.0134156108401351 5.7859066426869479 0.9857275119364856
2.4937404393119560 10.0989868685264064 1.0108420359045793
1.2582890038068839 12.3005161938019381 1.0391278080610384
10.0370507645705445 1.4437452811197922 1.0156094239256626
8.7828999800371559 3.6201250193714754 0.9949630453864805
7.5243571742970845 5.7962897926778396 1.0046380235873376
6.2778988494827201 7.9761157841112240 1.0223614676272206
5.0321565616410107 10.1645136603313553 0.9966455010317983
3.7561627509220137 12.3000748567934401 0.9961632188910314
12.5434807852928074 1.4461314057596149 0.9877936650733418
11.2923687632871790 3.6211160791426500 1.0037700827293818
10.0381877615160633 5.7946023165617850 1.0132464796721121
8.7872007894465867 7.9681344161480636 1.0431234963499338
7.5327090215827806 10.1449061892847645 1.0137803685494153
6.2758428534246118 12.3227528454562005 0.9669733350469389
1.2544929585605324 0.7243105820034970 4.3460956012401750
-0.0001481008980358 2.8971968352755546 4.3536368222629518
-1.2547497522977686 5.0701657131777056 4.3413779381187796
-2.5091087541570158 7.2431700834540145 4.3396096075878772
-3.7637232220198968 9.4161021538806509 4.3512179476883848
-5.0184623627551144 11.5890851121138692 4.3454775866418460
3.7637439872433287 0.7243410596600581 4.3470689698691753
2.5091483534426846 2.8972838523562250 4.3588266848837192
1.2543402854152716 5.0701400947293935 4.3529034146289440
-0.0001220117737461 7.2431121506995773 4.3330945198988937
-1.2545309481223590 9.4160485799057003 4.3389992781946995
-2.5092303229271109 11.5890166445455378 4.3465925819743294
6.2729122377607363 0.7243617021936137 4.3415442847198804
5.0183632870625337 2.8973374784040766 4.3395249679357164
3.7636606397149239 5.0702586351421202 4.3510358642511973
2.5085100497637467 7.2427986126751938 4.3476651970615618
1.2546841735059864 9.4160158947308688 4.3439706741756430
0.0000209234469226 11.5889625450248470 4.3533215923581308
8.7821988344890567 0.7243433428028708 4.3523591322922925
7.5275366295504940 2.8972781212406722 4.3332465955307153
6.2729363777412877 5.0701656410495399 4.3394247067533600
5.0184295030349606 7.2430816616545330 4.3480180235619912
3.7637691768226764 9.4168705285916161 4.3482363238523964
2.5093187913975625 11.5891800502051190 4.3579259874276053
11.2914744679016721 0.7244726074760930 4.3513149658675738
10.0368284137347921 2.8972545996269705 4.3456877702227885
8.7822199041800513 5.0701128412150860 4.3462070929593910
7.5275094265771987 7.2431215732394110 4.3538949559093787
6.2727813511115844 9.4163039356171545 4.3412596808814072
5.0184226185271177 11.5893883016165109 4.3397814962825541
13.8005094786425975 0.7243869332862090 4.3393455061865644
12.5459239418608526 2.8972438501519333 4.3467792586491916
11.2914300077450935 5.0701555769133178 4.3469671273483677
10.0368698727255286 7.2431328526388246 4.3589691188221424
8.7820857779159063 9.4161802045149638 4.3527659739951483
7.5274344108089659 11.5891897074372707 4.3330785209050786
7.5274860571440154 13.0377227860732727 7.7185578580622387
-1.2546429622339537 2.1728908088002243 7.6892308702480419
12.5460253742547447 4.3457952501438717 7.6862212883169097
11.2914488996855162 6.5188287311002506 7.6910364408499294
10.0367054951169195 8.6918413856733778 7.6624212522595396
8.7820411296118923 10.8648280262798256 7.6867171862992514
2.5091774218476255 0.0001263579502830 7.6900136921112905
1.2545905774516311 2.1730503299770514 7.6605124555540485
0.0000449711512146 4.3459237335806211 7.6548995760001208
-1.2545414205671752 6.5187550718609408 7.7161143933441041
-2.5092048872728085 8.6917627514673956 7.7247383772227201
-3.7639010923993736 10.8647796291421290 7.6925383425507361
5.0184293062940952 -0.0000215566230723 7.6868524477505247
3.7638151151349288 2.1730160827300558 7.6924693755960654
2.5090758798430781 4.3460639234277183 7.6634469850082763
1.2547179978244316 6.5191389143800986 7.6901556586225404
0.0000445292111584 8.6918112791494249 7.7209757007843223
-1.2545998333889288 10.8647345801122981 7.6896735164762866
7.5276122202052864 0.0000279386004968 7.6544944040974485
6.2730344652318619 2.1729741075130486 7.7164891360664472
5.0183335197608701 4.3459333686668220 7.7228984472963509
3.7637890064828232 6.5187439035135002 7.6879900976612570
2.5087301569698290 8.6920755159647136 7.6839564776857339
1.2546458804274832 10.8649148660983581 7.6604234148938097
10.0367307242067660 0.0000959407985129 7.6627778004901383
8.7821594418184752 2.1730847866338170 7.6882950919181079
7.5276058236734702 4.3460331564220143 7.7192093012975631
6.2728897059376134 6.5189173261769469 7.6896635733182421
5.0185159455422941 8.6917641863506230 7.6830107175553932
3.7636074652295979 10.8644467634404336 7.6942027868099609
5.0182303465850975 13.0375856065942184 7.7241367509130789
11.2912983878900572 2.1729886191836676 7.6932247738893107
10.0368511598640833 4.3459969800967420 7.6899730235387649
8.7822174028048163 6.5189284429057492 7.6594938914065338
7.5275890113453245 8.6917721463013233 7.6548237251623350
6.2728533176362014 10.8646110582503361 7.7161020286824131
2.5093179047038623 8.6916694863483652 1.0047602304299803
3.7030432794015988 8.0025831498922209 1.0064439616340324
