rBN 3-layer slab
1.0
15.0551462173000008 0.0000000000000000 0.0000000000000000
-7.5275736112000002 13.0376828894999992 0.0000000000000000
0.0000000000000000 0.0000169606000000 10.0278787613000002
B N C
107 107 2
Cartesian
1.2519875756832934 2.1687956007330840 1.0055291769773567
0.0020722648593845 4.3512681939872611 0.9992919388497639
-1.2500665611086283 6.5211336627006347 0.9989563913945400
-2.5036186938037952 8.6926168982982812 0.9990722859834418
-3.7644229256567838 10.8649222593083170 1.0013212531340652
-5.0179205534837035 13.0374113814111645 1.0074020468372107
3.7642363170899005 2.1696226385848969 1.0004076046204025
2.5023210397111537 4.3283610789691735 0.9973707074763722
1.2714849245130326 6.5226975799456390 1.0010546498655339
0.0036883599087318 8.7047143959250199 1.0045300350668944
-1.2611942036737838 10.8685418689290536 1.0030972242073652
5.0178989948204960 0.0004516829061749 1.0014558417817914
6.2753839524491815 2.1697898401665032 0.9976490758827727
5.0190148952395930 4.3425713846996299 0.9985883283670809
3.7429858607064084 6.4965423976691605 1.0038227178275549
1.2452357198120869 10.8550790045947334 1.0047383830952070
0.0020643392783677 13.0324411634867303 0.9994638777172344
8.7832360814665211 2.1712393130497927 1.0009524389107189
7.5266105484251362 4.3470095315989798 1.0045635248102742
6.2635974912883139 6.5242533808185916 1.0045018356399122
5.0272849297466848 8.7209449739224194 1.0039712641051357
3.7688864063387788 10.8481804407490117 1.0010120132237625
2.5094683367290180 13.0326132473481398 0.9990584180955884
11.2907879356580949 2.1716662658348440 1.0012858884484273
10.0371618539713747 4.3456627760783677 1.0062185521943745
8.7807182412359595 6.5191133102339966 1.0047990152092896
7.5307621585539293 8.6928971353289572 0.9989969649725652
6.2847205881295061 10.8794457976831893 0.9972802635091664
5.0147603023681349 13.0331989194143176 0.9989007850588323
13.7989232906386121 2.1738841000631925 1.0030215134145875
-2.5083691944574564 4.3470280531710115 1.0013989803901846
-3.7617758134081014 6.5187688026258872 1.0009063450421167
-5.0144482556989995 8.6912779486861904 0.9977593347943970
-6.2698778928665435 10.8660020784326594 1.0004416888353203
0.0022875233332260 0.0043245494493276 1.0052861794106884
0.0000179141754408 1.4486242509379395 4.3347976568466295
-1.2545677181722272 3.6214164478825377 4.3294161963001869
-2.5092965412617798 5.7943142398325111 4.3488708907607272
-3.7641982449843057 7.9673824898917776 4.3550001424635028
-5.0189329989158571 10.1403313558240331 4.3487050361335262
-6.2732315904892024 12.3133293740026151 4.3478314509506095
2.5091013034907736 1.4488759376664204 4.3477403783259660
1.2546053138961537 3.6216212227630993 4.3500908058346104
0.0001417502003156 5.7940629343007011 4.3551011336959666
-1.2546151736044340 7.9671986308824279 4.3509792212427048
-2.5094862048126090 10.1404613846496954 4.3299633655738878
-3.7640763199757905 12.3135373255215299 4.3318549085101559
5.0181872538755350 1.4491573796436368 4.3484881273667524
3.7637498769884004 3.6223148291970286 4.3544607203320265
2.5094682669616497 5.7949229010143766 4.3488776703768597
1.2557648728095072 7.9665958701127844 4.3487361474523434
0.0003301800427179 10.1402306025254809 4.3351896768300922
-1.2547771936355483 12.3136058462701676 4.3295767079795446
7.5274463064942569 1.4490385830191757 4.3547205412623695
6.2728263926876222 3.6222697050635895 4.3499173836910074
5.0182576175169249 5.7954097885567633 4.3289167070904409
3.7640370999047210 7.9673298402551715 4.3241644598722049
2.5105345885388717 10.1398466586963778 4.3486368617156659
1.2548232752915311 12.3135250672237095 4.3507080941627709
10.0368975714058859 1.4488308112926875 4.3490930038028051
8.7820902370036542 3.6218158268795433 4.3474247330292002
7.5272215629847388 5.7947341122347131 4.3343593466103787
6.2721544529364763 7.9671454008557507 4.3285207271848529
5.0181799708854422 10.1399847985496816 4.3486516320133930
3.7642579249217003 12.3134802914742032 4.3553795816411647
12.5461138165002275 1.4486913038850520 4.3297962336062650
11.2913903597417384 3.6215615765589835 4.3316042323523387
10.0365227676389406 5.7944786138397788 4.3473166411580566
8.7814991882438864 7.9672648564473834 4.3496432442145307
7.5269202831708686 10.1400904772398555 4.3541625852312009
6.2729462149595490 12.3133418323916271 4.3503419553817535
1.2544153190928677 0.7244269092215946 7.6818559677032781
0.0001088981990953 2.8973235372584893 7.6921772064105234
-1.2545326832809349 5.0699473431637987 7.6893657631125834
-2.5094193056562379 7.2428400708263503 7.6810258758232299
-3.7641960781423025 9.4160276766462818 7.6890766876837375
-5.0187921816491503 11.5891040637454825 7.6870310499564596
3.7635418952737991 0.7246518589020124 7.6870783240893212
2.5092809192408168 2.8976735014579327 7.6788993748357450
1.2550947445406668 5.0704126164217316 7.6821330661953251
0.0003504103853947 7.2426656796687476 7.6791415760637918
-1.2547002848234898 9.4159383741819909 7.6919689693691247
-2.5095078011397778 11.5892389444250110 7.7023894542568598
6.2728447918255892 0.7247172992046873 7.6892049765573143
5.0183020909860403 2.8978693089322922 7.6817320183360174
3.7641407410751038 5.0711758903595721 7.6886266418799396
2.5106188723686467 7.2436973089064844 7.6872248278447719
1.2558118477847025 9.4154086751718733 7.6797641115471462
0.0000953606102637 11.5892336963799778 7.6919192703603096
8.7823337739416214 0.7246833493914042 7.6809420257157619
7.5274193245711425 2.8977437600352109 7.6789251017533173
6.2726885253412918 5.0708078773393792 7.6933659628653945
5.0179689818812276 7.2434061957539360 7.7037186024240141
3.7640361829522022 9.4146108732562936 7.6872866755332412
2.5097935856502702 11.5890065827631688 7.6790088373673964
11.2916230087814498 0.7244043215200517 7.6892236560508431
10.0367045614844113 2.8975190305747192 7.6867557305965590
8.7817722573086279 5.0704471239586564 7.6818671456101955
7.5269166376331889 7.2431203236267647 7.6933312302965300
6.2723244137217433 9.4153277735651617 7.6887786160806391
5.0184607136268040 11.5885268631925147 7.6822099403407114
13.8005578184048314 0.7242013757188059 7.6921971837031125
12.5459790384116090 2.8972566333378111 7.7029210331553726
11.2911154649580858 5.0701459072242336 7.6867907168278888
10.0362758739475435 7.2430608401536114 7.6787846907781363
8.7816078761571852 9.4158798416085965 7.6816471519553984
7.5272668919800934 11.5887803362684387 7.6790068833472978
-0.0018960774265659 1.4497322472145846 1.0101719027405052
-1.2535867275562786 3.6251356744789311 1.0034019695595315
-2.5048280936497846 5.7968643755297844 1.0020205170402967
-3.7569000030783162 7.9677717117469955 0.9999624715879423
-5.0156748339680242 10.1404102473284023 1.0008906192572593
-6.2718575217574184 12.3148936173961516 1.0094914067324638
2.5084354963555291 1.4469069534830343 1.0096303159175457
1.2479589017906421 3.6144641055550202 1.0021807488233681
0.0078147662393892 5.8077775334648338 1.0009621139581075
-1.2415670764864508 7.9707356153978512 1.0028097610026985
-2.5088426749709472 10.1403386096375954 1.0033916816928952
-3.7629228855429755 12.3128748833121797 1.0075676424177167
5.0197500324202977 1.4463020399949744 1.0008839437090704
3.7623823026422731 3.6148161232260416 0.9988222335778636
2.4952943540117136 5.7705082275934041 1.0010486042108611
1.2827901643468504 8.0015207993396711 1.0081949441153912
-0.0059377807812242 10.1438537532789255 1.0092133535452867
-1.2543451549341480 12.3131177459842043 1.0037299487806917
7.5307644179285234 1.4425307758049026 1.0001678345205625
6.2749164747621080 3.6166600592326366 1.0015525812868720
5.0133648139038733 5.7859008170380806 1.0047363225533816
2.4937996069847457 10.0989940363959718 1.0082715895830496
1.2582886455935729 12.3004684350873141 1.0032313636681884
10.0369279271223917 1.4436986055227490 1.0020479998503644
8.7828382986262419 3.6202059672925282 1.0083738797499291
7.5244252990051947 5.7963499399771168 1.0095435913280890
6.2779419682454716 7.9761404158489224 1.0050634851854974
5.0322348730711122 10.1644727293607602 1.0010745851055141
3.7562132188810540 12.2999954236454236 1.0007598563144833
12.5433882955204350 1.4459953576469353 1.0030854626207422
11.2922648068633045 3.6210649970697886 1.0067903224425381
10.0382949786909776 5.7946441726265752 1.0084876070951743
8.7874016760189591 7.9682638136478925 1.0020233359652622
7.5327317246708034 10.1450278383257810 0.9990417185625251
6.2758243877254163 12.3226822533192575 1.0017166452198316
1.2545567167971166 0.7243528583971400 4.3454122757556091
-0.0001196000594814 2.8972348683098970 4.3352141054489763
-1.2547256458729230 5.0701160208970952 4.3468203414935873
-2.5091701854434802 7.2431898289226577 4.3598634416866240
-3.7638024608849614 9.4161473976795822 4.3470318222839310
-5.0184152288925308 11.5890663004414272 4.3441585468468542
3.7637701440450817 0.7243577963565991 4.3439667722826654
2.5090729482320979 2.8973213864167362 4.3588878642838038
1.2543063513452297 5.0700832131741596 4.3595086280324171
-0.0000978436569376 7.2430620837008313 4.3588731199644952
-1.2545144202601242 9.4161146545962175 4.3353129821466618
-2.5091793519359467 11.5890574764686232 4.3206857218094177
6.2729426165666178 0.7243282941920358 4.3464884602978087
5.0183086348051900 2.8973704162832483 4.3594875556064654
3.7635840726197092 5.0702985746202867 4.3468376199688405
2.5085482359896116 7.2427801932547116 4.3453318965027989
1.2547403385271914 9.4160284459993004 4.3427709656838642
0.0000420488875338 11.5889938109306492 4.3349085827746787
8.7821601335538890 0.7243001663394392 4.3596616287728551
7.5275879601591447 2.8972499818612709 4.3588191210782554
6.2729817444537490 5.0702448171478753 4.3360509119483748
5.0185137204858856 7.2430953537584708 4.3226465289600986
3.7638022415373142 9.4168692768835065 4.3451403892940252
2.5092339948798381 11.5892017765188964 4.3588193918809015
11.2913884897885701 0.7244917885712490 4.3473610356535275
10.0368727287291719 2.8972232455030795 4.3438969061414037
8.7822987163192767 5.0701480209806560 4.3449536545647751
7.5275583111208118 7.2431576720732078 4.3356437515115704
6.2728114392280716 9.4162578187277255 4.3462749857971588
5.0183557098080502 11.5893842832333256 4.3597042673199420
13.8005259458279852 0.7244525192240928 4.3355982232990904
12.5459700333162303 2.8972661793772838 4.3207562553595462
11.2914576722880895 5.0701532872222579 4.3436933478663065
10.0367966010025249 7.2431697814743865 4.3587579982517557
8.7820509766505435 9.4161367567240255 4.3592871946466243
7.5274752883716998 11.5891479221377676 4.3589168500994004
7.5274534736027521 13.0377259323062464 7.6848720082813209
-1.2546313365188031 2.1729859842903396 7.7059289826375785
12.5459293640472858 4.3458439217816514 7.7010517755231813
11.2913275718058941 6.5187828403927250 7.6812108592826531
10.0368013036043244 8.6918211427666439 7.6827873033286220
8.7821240243111518 10.8648071477221109 7.6815573356288693
2.5090901901665643 0.0000752733893390 7.6867085296388327
1.2545146284430788 2.1730557152282359 7.6847929114260669
0.0000381121693938 4.3459942755044922 7.6912492890310107
-1.2546075060310964 6.5187459684844029 7.6831327433881063
-2.5091637095483699 8.6917472276202314 7.6910155783353868
-3.7637820211137329 10.8647900967986768 7.7007253562359699
5.0183528054841116 -0.0000070533091753 7.7008254203705429
3.7637184165765576 2.1729726791155777 7.6815673001326479
2.5091986027371322 4.3460741697217857 7.6829136178786941
1.2547524771106058 6.5191562879647460 7.6839247334702092
-0.0000534394999907 8.6917578752967675 7.6862517971685449
-1.2545953962152612 10.8647520645242288 7.7058031729490803
7.5276361538265197 0.0000221620538062 7.6910043695485149
6.2729828014396265 2.1729229353489345 7.6830020324249952
5.0183971272665406 4.3459033194418808 7.6909820022087123
3.7638918678799480 6.5187833359965133 7.6963427743475270
2.5087381019450712 8.6920661139102204 7.6813638257152403
1.2546073049352886 10.8648226446651908 7.6861348086312447
10.0368523356184820 0.0000860545120398 7.6829133788125175
8.7822188946784507 2.1730310028684383 7.6812298862850756
7.5275290892131883 4.3459590858050783 7.6848933586122774
6.2728654158765282 6.5189241660085848 7.7070728065780303
5.0184999209288481 8.6917598710279567 7.6964873471640622
3.7636018894080903 10.8644691557412330 7.6839360579848170
5.0183272989828911 13.0376251687308411 7.6912243032975107
11.2914056446453284 2.1730235800976305 7.7009479460373802
10.0367344560513789 4.3459306976597958 7.6861262610768817
8.7821053541157283 6.5188748013110462 7.6847789643158340
7.5275875397315488 8.6917976859445059 7.6909956638653334
6.2728404397103237 10.8646664543840590 7.6831156144284050
2.5093092215312067 8.6917187315404458 1.0096905516764436
3.7029919693208915 8.0025731309198438 1.0123011195365963
