rBN 3-layer slab
1.0
15.0551462173000008 0.0000000000000000 0.0000000000000000
-7.5275736112000002 13.0376828894999992 0.0000000000000000
0.0000000000000000 0.0000169606000000 10.0278787613000002
B N C
107 107 2
Cartesian
1.2520346404595384 2.1687299191683014 0.9902056554573697
0.0020560733448917 4.3512221017436259 1.0092427538076161
-1.2501511863079777 6.5211111104506836 1.0093501077975606
-2.5036740751612352 8.6926149354068833 1.0083254864980371
-3.7643259390125547 10.8648801801891981 1.0025760819902294
-5.0177626005709950 13.0373222616244053 0.9844822430468061
3.7642273090851530 2.1696255615922122 1.0055460505483200
2.5022874701867206 4.3284395388366326 1.0145276783261843
1.2715039006451891 6.5227224208688446 1.0056693879594081
0.0037058638454021 8.7047418437743058 0.9916732217638259
-1.2611524690845708 10.8685162673230575 0.9961858694126449
5.0179875488835863 0.0003879166826313 1.0021727675264924
6.2753351619956055 2.1698937873127968 1.0136235706955403
5.0190310508263680 4.3427065828774909 1.0109018422656746
3.7431006110511409 6.4966258702594324 0.9989986801838953
1.2452219540544307 10.8550469851030496 0.9910502817115590
0.0020376054283131 13.0324844375204094 1.0071505851713225
8.7832698532434996 2.1713315657222969 1.0035676554324855
7.5266563008914664 4.3470805088049564 0.9934094947547069
6.2636195145849483 6.5242429155635548 0.9939409558041603
5.0272755432105578 8.7207955791542133 0.9985532990217418
3.7688790458881440 10.8481413894441001 1.0058037707485203
2.5094412545770575 13.0326886145595200 1.0090555175484557
11.2909571112768745 2.1716446514205079 1.0028436019362037
10.0373052153969944 4.3455776282278373 0.9880255952387810
8.7806833663349355 6.5190384392003633 0.9927037211590323
7.5306610271757730 8.6928152124966473 1.0096780155010745
6.2846397079121354 10.8794278957639765 1.0148027943949938
5.0147898031032723 13.0332278418012777 1.0104237553710278
13.7990532019716401 2.1738062221904992 0.9978021918171568
-2.5082682361410757 4.3468812617529045 1.0025044276489399
-3.7618373589860141 6.5186855259994489 1.0037033923909771
-5.0145611364491485 8.6912699777698954 1.0132909532567440
-6.2698852301568984 10.8660118109640216 1.0054414547192561
0.0023670890713044 0.0043151200426886 0.9909435346270876
-0.0000912277717540 1.4486845008208433 4.3720744160708209
-1.2545486612017591 3.6214582730027525 4.3882398619477803
-2.5092809794449362 5.7942166240100672 4.3298213296867889
-3.7640586118134154 7.9672485508559694 4.3113021390914987
-5.0188134857072368 10.1403504318965823 4.3297940781338564
-6.2733624105049923 12.3133971023872206 4.3321748621924909
2.5089646033635224 1.4489427840527749 4.3324475150396067
1.2547655545909462 3.6216503017055279 4.3262751708510434
0.0003108314809266 5.7940136068264287 4.3115528481585050
-1.2545882771904258 7.9670069799341547 4.3247616616642137
-2.5095235787442598 10.1403900298797431 4.3874192462648658
-3.7642640087665593 12.3136387286475522 4.3804241722351733
5.0182207370754419 1.4490348594319282 4.3304472795287872
3.7638834432111254 3.6221209804028422 4.3109335025841995
2.5095496513517039 5.7949125961064771 4.3302632916126118
1.2555783780192669 7.9666954348296741 4.3341189480142868
0.0002303154657529 10.1402875246810371 4.3728803080862821
-1.2547362392593560 12.3136704214534785 4.3885822974228512
7.5276380966164274 1.4489769203192739 4.3121431867097009
6.2728187237851776 3.6220465716671613 4.3252267918504437
5.0181619351410891 5.7953443518873957 4.3851387520062657
3.7639483184381173 7.9673821507830667 4.3748869978620748
2.5103521951964658 10.1399594369088977 4.3344151238905511
1.2550071197933415 12.3135995193159893 4.3255734257669634
10.0370036296673533 1.4488672350439913 4.3291637050756382
8.7819152999136101 3.6218923872529478 4.3334233125251060
7.5270441526574805 5.7948219432140515 4.3715150371965370
6.2721525433864871 7.9672470994158777 4.3863265509059000
5.0182262727757463 10.1399206169871174 4.3309399589077140
3.7643889277286604 12.3133607602569288 4.3107122173097183
12.5460935072707507 1.4486594541480040 4.3871041899863679
11.2911920960608594 3.6216807221440650 4.3813293090715444
10.0363587399668504 5.7945892025685843 4.3337461535062651
8.7816751596279659 7.9673682815949327 4.3260478102923878
7.5271502261633634 10.1400560163564126 4.3118283673101407
6.2730046429303385 12.3131854923990343 4.3255216850885070
1.2546647871276253 0.7242851545105689 7.7020730710532215
0.0001285276417788 2.8972347104730050 7.6709144088116945
-1.2545576411345676 5.0700778711559549 7.6786340155866277
-2.5094277900262343 7.2431072834712227 7.7031764196849535
-3.7643934869783977 9.4160311911218901 7.6800174647139299
-5.0187685989655515 11.5889280120238443 7.6862682801866002
3.7637093033202182 0.7247322793803783 7.6861258573944546
2.5092863837854571 2.8976923962894139 7.7109952804673956
1.2549031350007245 5.0703731301384574 7.7045000837489406
0.0003775767065532 7.2427533460574374 7.7100750619916552
-1.2546759296882770 9.4160301850279762 7.6715416315753693
-2.5095164037968938 11.5892516441839089 7.6397065674012685
6.2727487435791298 0.7248944418333346 7.6796357451917965
5.0182946547589440 2.8981784501539534 7.7023649456826560
3.7639990284443825 5.0712498932058541 7.6789197582394282
2.5106617126396289 7.2436542668210038 7.6863804465494372
1.2560223969550615 9.4152912718258222 7.6979803732232721
0.0000404086438671 11.5891738720249879 7.6716877000347843
8.7821102481750568 0.7245570523456478 7.7034264953891602
7.5274575371936869 2.8977805722462433 7.7108277530589069
6.2727713818573685 5.0708709789371014 7.6698657371759023
5.0180034783214307 7.2433761438220667 7.6389853376489070
3.7641049627575538 9.4145918913316233 7.6861928907046302
2.5097512715485046 11.5889370029528322 7.7104715227716598
11.2915110549832320 0.7243605134369487 7.6790648853448396
10.0368137564529043 2.8973067898865126 7.6870935918062697
8.7820487415323729 5.0702851047154045 7.7024155974994999
7.5269048915291590 7.2430171642598804 7.6699771197455640
6.2721902253548585 9.4154056477818209 7.6784746408118982
5.0184165767876081 11.5887154556163168 7.7042849528833051
13.8006536776156974 0.7242360563828333 7.6708590437094708
12.5460739584422569 2.8972041870956065 7.6387315308822892
11.2913494922525910 5.0701551451909159 7.6869891213845154
10.0362644604683151 7.2430102542415327 7.7112466346500090
8.7813432232573465 9.4157377953190906 7.7026236052644377
7.5272602898707346 11.5887668218385933 7.7106774167175720
-0.0019054873882190 1.4497353710095391 0.9865806911181634
-1.2535768608905509 3.6249584123468028 1.0068476078124160
-2.5048601473908523 5.7966636492180568 1.0104736735281101
-3.7569632059054254 7.9677911091959821 1.0164581780107995
-5.0155860935092678 10.1404495866065840 1.0141582168592553
-6.2717283915548636 12.3149053855847637 0.9883791191788809
2.5084922453610452 1.4467904254673618 0.9879635424303387
1.2478977967730986 3.6144245370812462 1.0101828595282467
0.0077507278031385 5.8077120947159671 1.0147607825825296
-1.2416346162774932 7.9707977729505304 1.0065475621782540
-2.5087638240067571 10.1403988699967780 1.0062110232268633
-3.7626942183094734 12.3127451664853300 0.9940459891130877
5.0197636665479308 1.4462068494089848 1.0141798309250476
3.7624271935160944 3.6149184861391443 1.0203028729149113
2.4953774093025221 5.7705821758839342 1.0144640488402499
1.2828883565930786 8.0015813889703260 0.9942564562406290
-0.0060406058696749 10.1439113194486623 0.9874301170780195
-1.2543577660965433 12.3130168592249696 1.0051945236425648
7.5307110283514787 1.4425720434708673 1.0158487293433347
6.2748989348918078 3.6168197468326291 1.0122194850080031
5.0134644151218133 5.7860080936431206 1.0021911595565929
2.4937972631679983 10.0988770387537770 0.9940319070478864
1.2581979426986276 12.3004891124121407 1.0052846277386276
10.0370771661223017 1.4438200933046881 1.0103925190341554
8.7829321477103299 3.6202708032470960 0.9917068982915843
7.5243257314188412 5.7964064115414411 0.9889492158475071
6.2779060658042711 7.9760018991040678 1.0012132680725030
5.0322179052110236 10.1643549251588805 1.0143862809953776
3.7562371467300788 12.3000728364276224 1.0153737878259619
12.5435438069844594 1.4460693929254695 1.0077831843260689
11.2924920354495963 3.6209294441653714 0.9966040598270122
10.0382868338129754 5.7945253154388174 0.9913659043303995
8.7872611908892875 7.9681992898257219 1.0108097077291829
7.5326697613073756 10.1449383498184016 1.0196458978704694
6.2758281969177068 12.3227470045495977 1.0115823550314471
1.2544319795625167 0.7244161839561025 4.3488987502231033
-0.0000817007349123 2.8972535764137652 4.3798358107987072
-1.2546567802324522 5.0700893306975985 4.3445509654727896
-2.5090879815571459 7.2430476926519338 4.3048711327204048
-3.7637357131619242 9.4160742769851780 4.3440382787983287
-5.0185112107815035 11.5891565661066984 4.3525779292538065
3.7636336800879815 0.7243839244711106 4.3531536991286535
2.5090996843297697 2.8972675290169980 4.3080204333858418
1.2544274586721014 5.0700780147066391 4.3073494652252071
-0.0000287197806523 7.2430385032434508 4.3062929427290966
-1.2545151969100234 9.4160535071401092 4.3782477597079286
-2.5092599057721823 11.5891028217180079 4.4225781889652520
6.2730392168566329 0.7243007999478746 4.3456731553855477
5.0183710145918337 2.8971987276530018 4.3065724446868696
3.7636187740977607 5.0702184395282162 4.3436969578324245
2.5084314844793547 7.2428697872504459 4.3557079893896473
1.2545897233015364 9.4161163480088099 4.3482734312717772
0.0000970696296716 11.5890278095225518 4.3794627224343339
8.7823359820190579 0.7243001408151059 4.3054769498610312
7.5276199455643198 2.8972113164879394 4.3088247900527561
6.2728999573903836 5.0702003605172452 4.3780408162476521
5.0182834765407218 7.2432206964802539 4.4224064296344352
3.7636643983627738 9.4169244017011060 4.3562785602405958
2.5092888520447896 11.5891542923466275 4.3064514646610652
11.2914531139131178 0.7244470210544202 4.3429296541598150
10.0367539260584113 2.8973307603773182 4.3535685983424361
8.7821178881331736 5.0702464262778673 4.3507000948346661
7.5275445569649815 7.2432349491235621 4.3792616707225118
6.2728924904162575 9.4162537875460952 4.3453842192990395
5.0184253103124892 11.5892821441898715 4.3067607076498655
13.8005315622981666 0.7244103467583196 4.3786836960605751
12.5458748873602772 2.8973272418511327 4.4230593167778043
11.2913013090831669 5.0702092453173364 4.3541745110051417
10.0368337933622964 7.2431568787660225 4.3090043782093819
8.7822234185119150 9.4161516874341480 4.3071730393946606
7.5275297080669530 11.5891322628026270 4.3079345407233376
7.5276033126772006 13.0375998151920029 7.7040048033126283
-1.2545064668036030 2.1729167749817320 7.6407351529445249
12.5460645516079037 4.3459676236833822 7.6552047286815563
11.2914107122396956 6.5189243748313892 7.7143494059379982
10.0365769882145894 8.6917299337282508 7.7096754850927587
8.7819889144559369 10.8646480338180140 7.7129832013432384
2.5092650470698752 -0.0000204623637020 7.6982104444677741
1.2546984666541923 2.1729923486349567 7.7042407517161546
0.0000191141561288 4.3460639725419847 7.6852195504807996
-1.2546188986381275 6.5189652807261913 7.7085580405609795
-2.5092813131890823 8.6918161898731068 7.6863487399237167
-3.7639116172692200 10.8646571278025021 7.6560639234730976
5.0184046561780544 0.0001814563070089 7.6557656892991774
3.7637900283108987 2.1731868755730570 7.7129489110685148
2.5090600347946426 4.3460860210707395 7.7104036755218459
1.2547254585575771 6.5191437738648021 7.7160950061765154
0.0000208920125390 8.6917097143460182 7.7043814730062357
-1.2545741474768826 10.8647461996245287 7.6426900144961403
7.5275278605618068 0.0000959494576553 7.6863817230075604
6.2729494542025188 2.1731728647590143 7.7090346437313126
5.0183110379924250 4.3459912095182167 7.6833523369868804
3.7636861452941526 6.5186658086505043 7.6524217530789009
2.5087020461475515 8.6920894528657584 7.6900107852069963
1.2547009256288810 10.8647857649773432 7.7047269306000503
10.0366749555296835 -0.0000143896418529 7.7092154643674231
8.7821389363301190 2.1728876732922657 7.7142927515283839
7.5276920846939204 4.3458651452550630 7.7031225033917199
6.2729405183647593 6.5188772610446009 7.6389131146650593
5.0184967935134557 8.6919739285063446 7.6519911479589702
3.7636230455527842 10.8645008410562287 7.7160643685832415
5.0182707908859099 13.0376113111636744 7.6853038540446761
11.2913700366095355 2.1728408243784041 7.6555168412663956
10.0369604628359710 4.3457953718176974 7.6996846246925292
8.7822693019708282 6.5187766435318304 7.7034641261024621
7.5274754927623055 8.6918296654889886 7.6833250504332105
6.2727680188854391 10.8647787616189291 7.7098049014809398
2.5094149715693459 8.6916582137306335 0.9910437844691925
3.7031285167853216 8.0024944435512246 0.9908196707381585
