rBN 3-layer slab
1.0
15.0551462173000008 0.0000000000000000 0.0000000000000000
-7.5275736112000002 13.0376828894999992 0.0000000000000000
0.0000000000000000 0.0000169606000000 10.0278787613000002
B N C
107 107 2
Cartesian
1.2518962288458737 2.1688128932461646 0.9812050593272861
0.0020594904400561 4.3513240456691387 1.0161924562827338
-1.2501830337325888 6.5211767235047553 1.0082165504146641
-2.5037050924150037 8.6925862835547232 1.0095475313147468
-3.7643985461156002 10.8649049979225971 1.0121246386558078
-5.0179599706156974 13.0374298754795426 0.9751209665337844
3.7640685552256410 2.1696324945887704 1.0020764875971249
2.5022496316068779 4.3283965490485476 1.0142825721761977
1.2715051586938835 6.5227539866186746 1.0009828554129352
0.0036685520009581 8.7047875379151272 0.9791703004143163
-1.2611673297092136 10.8685329297543625 1.0024010718088474
5.0179235570960570 0.0004543050174835 1.0127680392171197
6.2752529944719235 2.1698984588074497 1.0154838007018694
5.0189448896664821 4.3425654216349043 1.0135920459565835
3.7430740765500028 6.4965021343375282 1.0062762929073248
1.2451593336599511 10.8550665247093701 0.9804671081766746
0.0020513702202832 13.0325457072574675 1.0127650961470829
8.7831659407269846 2.1713953702393960 1.0000697730072792
7.5265135755215766 4.3470854521685514 0.9821846626590933
6.2636437350129439 6.5242146574169029 1.0004903981037774
5.0273637069860992 8.7208965711625162 1.0070356786064369
3.7688490743369263 10.8481425905132625 0.9997638482084951
2.5093862646504466 13.0327011194593769 1.0087558352086481
11.2908672302822399 2.1716601859671174 1.0136041877319177
10.0371285921377851 4.3456789362777961 0.9787855513404023
8.7805859103942954 6.5191371487845338 0.9834300432504909
7.5307290948578309 8.6929521195778001 1.0168063016864186
6.2846597630645729 10.8794903451468130 1.0136663275753297
5.0147157021833335 13.0331814210082442 1.0127922631235082
13.7990013372605187 2.1738365498802876 1.0082375276046218
-2.5083252286421063 4.3469768594356637 1.0143110955010501
-3.7619521307836536 6.5187599057019723 0.9987567762079728
-5.0146026239239090 8.6913321522639801 1.0161758748750702
-6.2699578853562237 10.8661309234569110 1.0034046295283463
0.0022302194969633 0.0043787991459371 0.9797800733087267
0.0001759641575823 1.4485339671072057 4.3933241367193521
-1.2545983067907118 3.6213058272860268 4.3431643187801763
-2.5093047296176976 5.7942540004568261 4.3183489497425489
-3.7640446048798313 7.9674575184962499 4.3455211118137047
-5.0189206200227883 10.1403444156478582 4.3207721537334178
-6.2731957807395275 12.3132199933497013 4.3436592122974291
2.5092303531614006 1.4489050893334539 4.3410387632739420
1.2547556212402753 3.6215507388025858 4.3668415671046104
0.0000997890904314 5.7938778151029195 4.3442317425882297
-1.2545454273906425 7.9670736508831066 4.3715639799216408
-2.5094629478634558 10.1405096416819376 4.3457749164736317
-3.7641720885054832 12.3135981007313529 4.2926389738275192
5.0181983372740371 1.4491304364118360 4.3198862365099986
3.7639288572346108 3.6224071125712514 4.3452907109412164
2.5094422405575001 5.7949921519567766 4.3192290613678352
1.2556856191590160 7.9665209862914645 4.3449911417327618
0.0004434909472637 10.1401619041454190 4.3928474491824892
-1.2548012649654123 12.3135433710285636 4.3422521768283469
7.5274570102623723 1.4488578068312008 4.3446910573631410
6.2729082492965471 3.6221892476641138 4.3731613264490763
5.0182610233759650 5.7955251641940393 4.3439556518328164
3.7638761697364469 7.9674125786504675 4.2836740036576417
2.5105704013120786 10.1399429013399107 4.3424311307039742
1.2549710569521992 12.3135120179984359 4.3663233898119200
10.0369316711939724 1.4488622554588810 4.3193039383002576
8.7821068970713512 3.6217162963119844 4.3441081198089302
7.5272982721360249 5.7946885396854020 4.3932669572512371
6.2720614897181273 7.9670671536898796 4.3404504693526844
5.0181146168283437 10.1399500405603522 4.3183908051942659
3.7643949017586005 12.3135933906708299 4.3450996215511744
12.5461780232003637 1.4487643431302504 4.3466671301755984
11.2913114706709763 3.6216011861497828 4.2929166940446004
10.0366274686029957 5.7945117066243323 4.3414207694713607
8.7816149698160491 7.9672286384708695 4.3678830560853905
7.5269260798997228 10.1398831658466229 4.3443960808920821
6.2730737273251025 12.3132422539799986 4.3720330217015704
1.2544818312858796 0.7243897214555872 7.6932243723774185
0.0000513888088175 2.8973390772136698 7.6593124720651664
-1.2543860681233152 5.0700573377052409 7.6830855744583824
-2.5093651848063394 7.2428054620232070 7.6733588978530252
-3.7643034187714708 9.4158063329030686 7.6813701084659298
-5.0186708729294400 11.5889703106904243 7.7245871212617079
3.7637022923605623 0.7246127577271176 7.7261929516272021
2.5092707433369035 2.8974995157406322 7.6808400838974373
1.2551099454377315 5.0703477135683181 7.6785712679896445
0.0004107394032797 7.2427777063634542 7.6802324629913432
-1.2548857409349097 9.4159909685941141 7.6598796650247145
-2.5095447432319338 11.5892550026611350 7.7023775622682882
6.2729650594387367 0.7249141517367209 7.6819537179741904
5.0183983466493567 2.8978818465275222 7.6756753401720301
3.7640868657617155 5.0710022794562821 7.6829464205913247
2.5107356950616664 7.2437297976564032 7.7262072029638231
1.2557430177020490 9.4154455785526583 7.6944876294407569
-0.0000543154068630 11.5893626920080752 7.6613753807562217
8.7823798007918157 0.7246320409880357 7.6732243181098365
7.5275846858850368 2.8978346276759277 7.6772060011829524
6.2726353918513142 5.0708336484919281 7.6608783582942763
5.0179663368131369 7.2434128055299203 7.7020324593939167
3.7640598594115233 9.4144951344186314 7.7278660844971050
2.5097202538531311 11.5888916076612958 7.6827787266087189
11.2916075975204127 0.7242032060779130 7.6824618806609752
10.0368897367545014 2.8973544768452713 7.7243395576126890
8.7818437378432197 5.0703926126544996 7.6961881931113378
7.5268597714969854 7.2431560981010872 7.6623385315144201
6.2724462962083081 9.4154664933550798 7.6835322013128780
5.0185335543905891 11.5885427619721444 7.6787291430176996
13.8005293296751592 0.7242405161962899 7.6578110864678042
12.5460470686770389 2.8972093547068063 7.7013054668348380
11.2913226529638919 5.0700419939907144 7.7259713789681674
10.0362632437560979 7.2428574878281706 7.6797059700589996
8.7816452916257965 9.4157822746126065 7.6755331645379723
7.5274274548992102 11.5888705718656144 7.6783377740868142
-0.0019734812767823 1.4497650250697216 0.9797092343862491
-1.2534834883186448 3.6250543027551898 1.0252506304819204
-2.5048734330576101 5.7968902535141993 1.0138779486338805
-3.7570202011359215 7.9678275522102133 1.0156405841943508
-5.0157522109631154 10.1404143644650961 1.0208993353114026
-6.2719867365787234 12.3149992742072154 0.9733165249567806
2.5082651397376070 1.4469584472027237 0.9733968805695725
1.2478580465645452 3.6144945167260998 1.0086285279712714
0.0077556967503495 5.8078414780494096 1.0151720583875190
-1.2416113019032089 7.9708160823135747 0.9985085226711653
-2.5087492574454102 10.1402805630687798 1.0174878835509427
-3.7628522877165449 12.3128347010262775 1.0010239514820083
5.0197004697126513 1.4463794890175954 1.0200081015759717
3.7623221501116331 3.6148709427764656 1.0200026582141344
2.4953165216902646 5.7704790783955406 1.0155525960013108
1.2828896424712735 8.0016538416855401 0.9806399719283415
-0.0060185106497394 10.1438991246585104 0.9773348557116004
-1.2542485541427586 12.3130788760228427 1.0200013328867925
7.5306585480151167 1.4426235654632911 1.0180177470302558
6.2748173819460273 3.6167571135040393 1.0080356340478720
5.0134680837710439 5.7858497098959960 1.0127424233487448
2.4937317521008504 10.0988423139845001 0.9807154340787020
1.2582011810845732 12.3004820651302076 1.0016005001394050
10.0368956368487297 1.4437363961159888 1.0146228925297973
8.7826791178367074 3.6203106534304172 0.9763378758527775
7.5242954799355530 5.7964011971671772 0.9803103819460031
6.2780317053226540 7.9760649920941145 1.0150537154912262
5.0322786237493666 10.1644744584816298 1.0150182678686439
3.7561414010456855 12.3000225968472705 1.0126864350931037
12.5435144776318666 1.4459443455005589 1.0226740980577711
11.2923437639855120 3.6210213454687872 1.0055537156547865
10.0381168527136033 5.7947226592687446 0.9762680184470419
8.7872612255690754 7.9682894095083006 1.0112763491799843
7.5326629226262627 10.1450493672557354 1.0224439981316384
6.2757559652615891 12.3227517609902684 1.0051846935355710
1.2546970479759736 0.7242788283204630 4.3737606254787869
-0.0000121577540004 2.8970957659646701 4.3903069748579702
-1.2547718796697087 5.0699859116473922 4.3301514700464834
-2.5091015562136985 7.2431476123280518 4.3477839138543892
-3.7637516267308961 9.4161988423466028 4.3341876487910396
-5.0184500332032025 11.5891073491997965 4.2998510186483951
3.7637330095900179 0.7243770584789717 4.2976656393448129
2.5092161857048065 2.8972771930861900 4.3594240847467489
1.2543328474690025 5.0700009204117906 4.3454703397916363
-0.0001001964698484 7.2429490450023781 4.3628707658834429
-1.2544162973385242 9.4160734915461806 4.3937240746010531
-2.5092517973485515 11.5890934504398704 4.3145276588574912
6.2729270339188092 0.7242456353052237 4.3309595905426796
5.0184119901941067 2.8973647632442825 4.3510157339564062
3.7636181885948625 5.0703859406003815 4.3325826192950103
2.5084005155583591 7.2428394105895668 4.3010143645270551
1.2547057731216442 9.4160433782304001 4.3729972666693708
0.0001298253977368 11.5889136542943376 4.3883146543430351
8.7822299159246793 0.7242514104497354 4.3446327584359086
7.5276699893160588 2.8971802772820481 4.3648391963772930
6.2730519269821281 5.0702658967319936 4.3958223522449673
5.0183476331301549 7.2431835143716992 4.3139526054611457
3.7636803046498599 9.4169586158871539 4.2990195436758176
2.5093403168202895 11.5892461922306591 4.3585713605642553
11.2914696154279586 0.7245832719489161 4.3334075208892138
10.0368386875130522 2.8972654635733357 4.2994298938492710
8.7823783718240662 5.0701032809417121 4.3750487230504520
7.5275802630323225 7.2430748926010757 4.3904515670946358
6.2727532304946889 9.4161711893638760 4.3293573310941795
5.0184396904450841 11.5893892552473528 4.3486103179483067
13.8006906190403420 0.7244230064031467 4.3956209372470241
12.5459123763698326 2.8972888132537902 4.3164274327748995
11.2914062706702314 5.0701522662675220 4.2971772743168941
10.0369049933080863 7.2431266848817062 4.3604520364189154
8.7821056828358746 9.4160499124908910 4.3478053790036819
7.5275796098403802 11.5890520558952606 4.3637014390830160
7.5275299371661788 13.0377152651968711 7.6706848977805482
-1.2547046254375003 2.1730340399683397 7.6638958151860805
12.5460641962692474 4.3458500069634614 7.7203298733187271
11.2914277358952990 6.5186209041237229 7.7006310592455138
10.0367567737793877 8.6916469077322045 7.6745830316037589
8.7822746358766288 10.8647340029866033 7.7001308189429878
2.5092999807264236 -0.0000485262687704 7.7412692246117585
1.2545543324566912 2.1730082091944261 7.6731180066315678
0.0000788646524223 4.3460819203160534 7.6649247613692850
-1.2545359751128238 6.5187824350950860 7.6745290229289926
-2.5093288393898958 8.6916441555996418 7.6614617310836932
-3.7638101083479163 10.8646586797820994 7.7193749398969533
5.0184387865747082 0.0000790227401786 7.7207068187804975
3.7638359978483598 2.1728809108790217 7.7027133428855992
2.5091770317652724 4.3459499262390953 7.6780773184336528
1.2548112370639326 6.5191332305621454 7.7063802985943131
-0.0002044778041730 8.6917677075159592 7.6760271445220027
-1.2547706853191394 10.8648533597961752 7.6674220804416224
7.5276279177794763 0.0002024875731309 7.6625968101488642
6.2730995350307479 2.1730288473117598 7.6734994880906164
5.0183153238824989 4.3458245076711401 7.6638397178045610
3.7638074198602518 6.5187533916551414 7.7140109169389941
2.5087438934343700 8.6920697256321198 7.7363584500199973
1.2545163102872443 10.8649456110835736 7.6784923652352655
10.0368458120286430 -0.0000121006312602 7.6756028915405219
8.7824003405495930 2.1729894441838478 7.6980297120820911
7.5275966527826492 4.3459477796363037 7.6732875106847995
6.2727928848344945 6.5189716027173414 7.6671199588968761
5.0184840490288716 8.6918619384001587 7.7153624602171540
3.7636475405002972 10.8644277147325692 7.7090501750277873
5.0182801846814371 13.0375380533970358 7.6637590083321072
11.2914669918344082 2.1728846779316342 7.7189485689664057
10.0369759929679621 4.3457701842484138 7.7427078624004562
8.7821357350128242 6.5188152185123789 7.6756899720585317
7.5276121998399201 8.6919047214928327 7.6649366358560123
6.2729458088885055 10.8647411413936084 7.6770140542528305
2.5093415971596995 8.6917016896674646 0.9833657627286143
3.7030454227166030 8.0025429613019856 0.9970957288490071
