rBN 3-layer slab
1.0
15.0551462173000008 0.0000000000000000 0.0000000000000000
-7.5275736112000002 13.0376828894999992 0.0000000000000000
0.0000000000000000 0.0000169606000000 10.0278787613000002
B N C
107 107 2
Cartesian
1.2520680838983420 2.1687567050723708 1.0153604547774093
0.0020740346745647 4.3512117544311613 0.9921711001268890
-1.2500241731923836 6.5210955587270742 0.9971136672157157
-2.5035841702952562 8.6926364902559055 0.9959442893103198
-3.7643987675824779 10.8649162339324974 0.9946418414763052
-5.0178284616820790 13.0373619187877630 1.0193728487934928
3.7643444049974288 2.1696172858353626 1.0014360351058864
2.5023546578121572 4.3283701238610330 0.9932448688639103
1.2714793417808639 6.5226703258816183 1.0030253203730473
0.0037088584875268 8.7046770712021502 1.0160795192923346
-1.2611947302379918 10.8685371610430153 1.0006815946419103
5.0179195174964093 0.0004233655721593 0.9942130958851980
6.2754509284116970 2.1697607390501612 0.9924152988420281
5.0190682971161555 4.3426316926502233 0.9937164807651598
3.7429748627876505 6.4966040201361963 1.0001769854228502
1.2452809081811540 10.8550739830634413 1.0152158574643753
0.0020618462129013 13.0323894984869391 0.9937991935365387
8.7832969135332863 2.1711737135369340 1.0026305563970814
7.5266942605551472 4.3469884917217554 1.0148352537212417
6.2635758385121578 6.5242748358967848 1.0027757607324390
5.0272285005303550 8.7209149946089362 0.9996708356528541
3.7689082274855830 10.8481894028624648 1.0038406888692566
2.5095117672180818 13.0325860689453901 0.9967589314589100
11.2908055624164891 2.1716613130740217 0.9937227362126737
10.0372437624544428 4.3456165243410281 1.0169268206988584
8.7807919305883075 6.5190662216029587 1.0140052906608814
7.5307420629437631 8.6928263446495997 0.9915745115502084
6.2847274380822231 10.8794086402411008 0.9936572753341523
5.0148023277976437 13.0332226360129333 0.9944410373124630
13.7989253892794359 2.1738833510715070 0.9973694532889683
-2.5083564390358646 4.3470010192370321 0.9932515066740890
-3.7616839124818635 6.5187400353141483 1.0035048273269045
-5.0143923771949552 8.6912384917525429 0.9919531490999262
-6.2698276217444047 10.8659202369712258 1.0005496308249429
0.0023588782816005 0.0042844540654883 1.0163141481521625
-0.0001329282906514 1.4487095442763054 4.3113119866082270
-1.2545393853555424 3.6215076220803013 4.3447606420000255
-2.5092845982674832 5.7943137261569495 4.3612815343253715
-3.7642424912327508 7.9672766628905416 4.3431119948250334
-5.0188914543409782 10.1403305976383784 4.3594473919004031
-6.2733099719955652 12.3134305145981440 4.3440893647368473
2.5089583119906673 1.4488843558827125 4.3458360953246657
1.2545718759562361 3.6216803282961205 4.3290004504114581
0.0002401748071597 5.7941657939849414 4.3442022754605158
-1.2546504642411249 7.9672020963201939 4.3263320656323767
-2.5095172819168989 10.1403994821407206 4.3433622819286324
-3.7640906779521490 12.3135390600174901 4.3782360581840045
5.0181938162764945 1.4491242917099587 4.3600390346721030
3.7636862094170622 3.6221725366166355 4.3424377191976395
2.5095195280602720 5.7948724400078184 4.3608874185644391
1.2557400024139014 7.9666872779590356 4.3451423181662081
0.0002130291992853 10.1403001190103375 4.3124555916185736
-1.2547440817588920 12.3136744027576146 4.3457120576817205
7.5275190831997509 1.4491334076861999 4.3436662994649096
6.2727686262389870 3.6222303710813950 4.3241336752520603
5.0182154792876332 5.7953056061863428 4.3423165959771168
3.7641073944058192 7.9672964773782642 4.3722924881776928
2.5104347161307308 10.1398294878559057 4.3468482916296631
1.2548013560601734 12.3135647884123411 4.3298251185650853
10.0369190291561061 1.4488250250782686 4.3606485063348499
8.7820062398376706 3.6219140807468344 4.3438018832993412
7.5270965025808572 5.7948010901756453 4.3105691439273723
6.2722156327695471 7.9672399400330507 4.3446533256234021
5.0182428327111346 10.1399812282248334 4.3614456527654442
3.7642211915333332 12.3133550873359212 4.3436214865630562
12.5460625498545220 1.4486293403311499 4.3424272843850860
11.2913603425885469 3.6215848141589011 4.3781147065238333
10.0363846221328661 5.7945026306204124 4.3455928524276075
8.7814953219391452 7.9673320955765385 4.3276519388330650
7.5270122282651721 10.1402143261339113 4.3430343306568382
6.2728855517036752 12.3133430763357996 4.3255394652130228
1.2544749226453422 0.7243926366026721 7.6827008243163277
0.0001554167270653 2.8972761661277509 7.7052275303079156
-1.2546408258250283 5.0699284001329019 7.6890809940795695
-2.5094589213770018 7.2429744819638087 7.6953665877457516
-3.7642067714045635 9.4161767035065953 7.6904397309248571
-5.0188632280107903 11.5891198775648387 7.6616758483488523
3.7635047172352980 0.7247114348845948 7.6606050446078733
2.5092899800703594 2.8977973647825834 7.6909788628078042
1.2550047733009813 5.0704394323726429 7.6938271889797862
0.0003215103406207 7.2426275228675641 7.6913032705820346
-1.2545664994428714 9.4159415657597361 7.7048504481846667
-2.5094867575188058 11.5892335305004686 7.6762795127260786
6.2727245933141331 0.7246598736119346 7.6900519692104314
5.0182348221158719 2.8979897593778312 7.6943668568397756
3.7641176110212284 5.0713224654810505 7.6883689212221364
2.5105588406862096 7.2436577155375890 7.6608847522256820
1.2559454633274543 9.4153351548571607 7.6775385419831252
0.0001722479690162 11.5891227724799997 7.7038520424607331
8.7822099536387572 0.7246649312245848 7.6954556931502944
7.5273250056212735 2.8976985200293299 7.6933639401775560
6.2727584712163083 5.0708169889033972 7.7052326052088516
5.0179851187767062 7.2433892675983342 7.6778705041211177
3.7640490568982181 9.4146801233461233 7.6597779925454104
2.5098248426392940 11.5890542412434439 7.6896050301249588
11.2915866355395504 0.7245201451135180 7.6894986851832536
10.0366266092078913 2.8975402994409318 7.6618406214231856
8.7818398053787945 5.0704159568100726 7.6808816355633107
7.5269496541806458 7.2430534909076814 7.7042621500883675
6.2721872469111650 9.4152677412954908 7.6879829028971711
5.0183937627679489 11.5885948441826798 7.6937283937821332
13.8006167522291392 0.7241897323438280 7.7062303568626342
12.5459732349140918 2.8972662998242291 7.6772524514219445
11.2910748509935921 5.0702190318660314 7.6607529439662976
10.0362795384588281 7.2431753309072064 7.6916963145375075
8.7814726604698450 9.4158857003186309 7.6944633324457818
7.5271570991551160 11.5887145481912199 7.6926490117585677
-0.0018483956771105 1.4497116968923909 1.0206506768007002
-1.2536514426039813 3.6251160630730386 0.9902718782166409
-2.5048112231033457 5.7967634875769543 0.9976377111811630
-3.7568462055512080 7.9677425670419284 0.9963836075265271
-5.0155862741134811 10.1404238939365143 0.9930796408886622
-6.2717175742921505 12.3148280829340315 1.0248112081022598
2.5085727128531090 1.4468240709967113 1.0247581171965248
1.2480006781840634 3.6144273445768946 1.0012164421851317
0.0078274632169778 5.8077076375964225 0.9972382629320090
-1.2415657344548798 7.9707078697676526 1.0072346703802020
-2.5088720987528927 10.1404024158331332 0.9951689394266835
-3.7628746727466367 12.3128476228249273 1.0062960808312602
5.0197887551119091 1.4462107445690648 0.9936744581377935
3.7624411088601257 3.6148222280728848 0.9936522168774529
2.4953141819305165 5.7705584721797010 0.9969690449461399
1.2827647590331634 8.0014573501218660 1.0207572222922734
-0.0059268046557352 10.1438474915965919 1.0213893369063829
-1.2544148101127390 12.3131016231420976 0.9934925989024048
7.5308127522136932 1.4424861108934621 0.9948015990235886
6.2749752283602040 3.6166618928850318 1.0016750893300099
5.0133374678332352 5.7859795870515693 0.9983384374411441
2.4938438669836973 10.0990464356527045 1.0207091588629633
1.2583091623933456 12.3004679639440617 1.0051741327167272
10.0370116368881295 1.4437240317030637 0.9971416210573221
8.7829835229376343 3.6201631915150054 1.0227866400737198
7.5244703585573083 5.7963392983355453 1.0204514077992373
6.2778671841768494 7.9761329830417713 0.9967990745179305
5.0321986360105724 10.1644224915293986 0.9973253365508707
3.7562710673750601 12.3000095635034405 0.9988979419251857
12.5433689705561573 1.4460602137772423 0.9919837563732756
11.2923068473594537 3.6210376177602819 1.0033704508779036
10.0384103356433929 5.7945423243702301 1.0228332900419397
8.7874367741815202 7.9682198648150493 0.9995156487237477
7.5327517746324020 10.1449761988277363 0.9920252735614262
6.2758715898647548 12.3226628945512253 1.0035153254308451
1.2544111888301286 0.7244285974311591 4.3279660736349461
-0.0001754368778983 2.8973353982499930 4.3170779030720343
-1.2546661293248698 5.0701916394804396 4.3569873491163236
-2.5091816866440286 7.2431587498729257 4.3450029981721894
-3.7638085387697395 9.4160826342789008 4.3543472948268578
-5.0184320184724882 11.5890765452963773 4.3772049749820567
3.7637380403663325 0.7243558416560639 4.3786620804270626
2.5089885966243219 2.8973284080538759 4.3373356211010226
1.2543391486489111 5.0701359089876057 4.3471345023565995
-0.0000674734998782 7.2431276176425579 4.3342996155037810
-1.2545801591453154 9.4161166185228637 4.3142617444942628
-2.5091646190926418 11.5890523876750340 4.3672462917589669
6.2729932551193288 0.7243719441815100 4.3565013297544519
5.0182657227903480 2.8973026480466233 4.3430874738233403
3.7635757875854621 5.0702069410118611 4.3550323445278867
2.5085980698145063 7.2427780458630311 4.3792002898561480
1.2547006257868665 9.4160551170158637 4.3249127923551569
0.0000064565232892 11.5890614147681497 4.3178687599206311
8.7821868821671814 0.7243326596307694 4.3471039261175592
7.5275466013066925 2.8972803410085315 4.3339747662849399
6.2729008781584277 5.0702122404957013 4.3136990785420126
5.0185285104125539 7.2430888061503955 4.3700091032403741
3.7638260981395586 9.4168326862217402 4.3805285242672349
2.5091859707382671 11.5891523809726085 4.3371647764170671
11.2913613327475399 0.7244121465207922 4.3548169698740224
10.0368459217604329 2.8972398979871752 4.3775714527532550
8.7821702675718747 5.0702188498804572 4.3272846256867785
7.5275379456148750 7.2432450571589442 4.3172793407940855
6.2728840163787369 9.4163138919779446 4.3571822695582609
5.0183287229268769 11.5893384106225330 4.3450404170385006
13.8004185038823231 0.7244546225773180 4.3135353609844200
12.5459688271321816 2.8972765328237164 4.3662684126735849
11.2914267886979438 5.0701772837316978 4.3790712148737629
10.0367398362820541 7.2431931364076885 4.3368979644559937
8.7820863566358938 9.4162008740086662 4.3452275070536013
7.5274284155989344 11.5892053082431303 4.3344844952036299
7.5274649308414885 13.0376804949148948 7.7023020798782138
-1.2545304481916717 2.1729251099597531 7.7067869985664705
12.5458958040495681 4.3458914074528332 7.6690967741421394
11.2912954375937069 6.5189497705881703 7.6820717870804733
10.0367375254085598 8.6918992956902734 7.6994602268802543
8.7819673208278282 10.8647896134190756 7.6822691241337768
2.5090231868363708 0.0001179165976449 7.6551271975022743
1.2545647583553012 2.1730609831702425 7.7006794480766025
0.0000030280085144 4.3459648860624069 7.7062865830762401
-1.2546599402295411 6.5188130375113600 7.6994624308495458
-2.5091026245043162 8.6918446765726554 7.7087736271649874
-3.7638172946890638 10.8648223043946555 7.6696833701441172
5.0183170892128564 0.0000141083313321 7.6687962668175045
3.7636698672846651 2.1731231064638981 7.6805456095206246
2.5091552467423353 4.3461619367723108 7.6975920081933680
1.2547020460779592 6.5191664453581701 7.6823586370151009
0.0000782241663515 8.6917312534211622 7.7006222638652773
-1.2544696831716846 10.8646820906347230 7.7050934185986613
7.5275965223309180 -0.0000673102074732 7.7080166397562175
6.2728910843634171 2.1729564646279176 7.7001839833588797
5.0184157923250199 4.3459924814875155 7.7058978313023836
3.7638624488156642 6.5187543291632570 7.6662635870912883
2.5087192177032391 8.6920734306604270 7.6483036426336337
1.2547069766563148 10.8647253005163318 7.6989764883822325
10.0367827763080406 0.0001096395434512 7.6987462393083925
8.7820646147858845 2.1729989880014267 7.6838061962717781
7.5275519616171858 4.3459274813550879 7.7002260675553638
6.2729450626079810 6.5188729978010871 7.7053081667350618
5.0185091991057522 8.6917810167291503 7.6653638554598791
3.7635802704069081 10.8645099852949230 7.6805801093721797
5.0183351634767845 13.0376774716337245 7.7070676460857657
11.2913499098376935 2.1730400333252837 7.6700179037634530
10.0366676009339031 4.3459813208331761 7.6540545117010179
8.7821534117906239 6.5188736241021514 7.6986237765651309
7.5275244134221166 8.6917396537224878 7.7051722602748303
6.2727400182478332 10.8646634577255572 7.6983038574840101
2.5093317002947697 8.6917048770350114 1.0194709246386420
3.7030132285005966 8.0025604575948233 1.0134874429956400
