rBN 3-layer slab
1.0
15.0551462173000008 0.0000000000000000 0.0000000000000000
-7.5275736112000002 13.0376828894999992 0.0000000000000000
0.0000000000000000 0.0000169606000000 10.0278787613000002
B N C
107 107 2
Cartesian
1.2519649708668610 2.1687904179766471 0.9948672175073353
0.0020653081338596 4.3512791291739479 1.0065839138203958
-1.2501194895165066 6.5211442575936829 1.0037753971350847
-2.5036567235671048 8.6926063662351964 1.0041062345129761
-3.7643986347023510 10.8649094923265572 1.0051315197840067
-5.0179073670422500 13.0374026928028304 0.9928217194376678
3.7641788951343562 2.1696264110874073 1.0018203066006295
2.5022916420889896 4.3283859789735413 1.0058674908512828
1.2714948319286756 6.5227205223238522 1.0017998413969800
0.0036846745955856 8.7047433512299364 0.9939339879655236
-1.2611782899207249 10.8685346222698236 1.0017132809420726
5.0179219412561977 0.0004419292393538 1.0053460618843510
6.2753321680478331 2.1698433709045344 1.0062563999579328
5.0189942526463520 4.3425919300410314 1.0056418198800141
3.7430343910450619 6.4965428886569949 1.0038365699135350
1.2452079634684323 10.8550695080509989 0.9943666078917548
0.0020555606173304 13.0324832237492565 1.0051787351028652
8.7832183298495057 2.1713067075584109 1.0010940863632001
7.5265858495350049 4.3470466679898330 0.9952448990839527
6.2636165764126295 6.5242387288088555 1.0014045431552421
5.0273096244038014 8.7209039405410831 1.0040897414250038
3.7688727355963887 10.8481613154529430 1.0013945844727996
2.5094364656775006 13.0326550992537822 1.0039570737087529
11.2908425631359393 2.1716606368098792 1.0056516071242201
10.0371746602644478 4.3456539715030891 0.9940420590837848
8.7806683184718999 6.5191087779119039 0.9956601422146472
7.5307342820922036 8.6929018096065196 1.0067135856319345
6.2846868330716328 10.8794576631845281 1.0056627066788588
5.0147503524290578 13.0331979070101198 1.0054517727990901
13.7989709580680859 2.1738552703567753 1.0038902978783604
-2.5083377127996096 4.3469865233562111 1.0058872599702657
-3.7618448434629377 6.5187519575468427 1.0006559966555455
-5.0145185252323277 8.6912946880594042 1.0064867845650125
-6.2699057799114959 10.8660466488626373 1.0022626300469848
0.0022816830108182 0.0043410611137576 0.9943937032461011
0.0000524071782888 1.4486041979748456 4.3605192766749026
-1.2545747382166441 3.6213865452037366 4.3438028480681155
-2.5092966770776117 5.7942778907368755 4.3355219835756778
-3.7641237594209991 7.9673851762539671 4.3445574650182364
-5.0189089537500644 10.1403388884440666 4.3362422490002119
-6.2732414572419426 12.3133042018490784 4.3438312732731958
2.5091215366931072 1.4488967959531573 4.3429576960942313
1.2546821231266596 3.6216025745999998 4.3517051204273489
0.0001559433771227 5.7939930066557288 4.3442199557371444
-1.2545874421308354 7.9671250290579421 4.3534712142059346
-2.5094846814848331 10.1404655778654504 4.3448098626556320
-3.7641395242841496 12.3135744844458088 4.3268778075701135
5.0181965288750199 1.4491279785310851 4.3359473557748398
3.7638317981075913 3.6223132821894053 4.3441495142437851
2.5094731555586089 5.7949442671771934 4.3358924042464766
1.2557073724609702 7.9665875029584932 4.3450516123061398
0.0003513062480723 10.1402171900913860 4.3606907061569231
-1.2547783916828041 12.3135957837201850 4.3436361291696963
7.5274818394373240 1.4489680471732005 4.3442811542038484
6.2728524000735231 3.6222056970310264 4.3535502659702701
5.0182428057406323 5.7954373409909605 4.3433000294905364
3.7639686596041959 7.9673661381415863 4.3191213974656621
2.5105161272395398 10.1398975359463090 4.3441979950742500
1.2549031765953889 12.3135331261639980 4.3517240813131863
10.0369266143788263 1.4488473633066361 4.3358417655140951
8.7820666341778786 3.6217954100859244 4.3439856252050948
7.5272175643139576 5.7947335598814993 4.3601878319216905
6.2721231469386947 7.9671362682271480 4.3421316118609710
5.0181659031814601 10.1399625156261450 4.3356127442227370
3.7643254176684935 12.3134980693368661 4.3445083675559273
12.5461318338620273 1.4487103420106102 4.3449711918593934
11.2913310194380045 3.6215946373534300 4.3269958990362936
10.0365303300149442 5.7945080762227645 4.3430896026538592
8.7815671106652875 7.9672700213131371 4.3517906091844605
7.5269605392459020 10.1400156299615372 4.3438513807979851
6.2729984570765316 12.3132825829223194 4.3534355991061506
1.2544790678296647 0.7243908875144212 7.6890149531529817
0.0000929999761166 2.8973139127793019 7.6776784953622661
-1.2544879712040005 5.0700057626763053 7.6854837423068574
-2.5094026794346043 7.2428730699994475 7.6821619738101159
-3.7642647598247079 9.4159544811444782 7.6849979574495002
-5.0187478149619800 11.5890301374401901 7.6994226120965656
3.7636232623104569 0.7246522285901085 7.6999577888194706
2.5092784380302859 2.8976186553574128 7.6848955954615841
1.2550678765830314 5.0703844010900481 7.6846736363857007
0.0003750477782161 7.2427176329650980 7.6846607860276199
-1.2547580443380943 9.4159712074603625 7.6778679782886954
-2.5095215489466827 11.5892464137968680 7.6919383424514045
6.2728688729888953 0.7248124404868064 7.6851930184686870
5.0183329368359626 2.8979250116676458 7.6831519468391285
3.7640991638655206 5.0711303538661889 7.6851154208436494
2.5106649533114838 7.2437009648088777 7.7000782226685667
1.2558239959522111 9.4154014090744589 7.6877079944577043
0.0000363099434887 11.5892667241968450 7.6783660454380263
8.7823118619305927 0.7246451970826553 7.6821168681260197
7.5274808137795315 2.8977801846172886 7.6836691767807936
6.2726846235973124 5.0708269846565157 7.6786200570601064
5.0179738495985644 7.2434033903572859 7.6923676772847971
3.7640555384062013 9.4145691299896281 7.7006308477164271
2.5097620893675963 11.5889566610941550 7.6855092480152143
11.2915992127280678 0.7243299816921550 7.6852766024698864
10.0367844857358577 2.8974288058835356 7.6993399831368876
8.7818421648574496 5.0704019503167288 7.6900655700921270
7.5268957245704495 7.2431150552237247 7.6791079789439989
6.2723426764894503 9.4153869925312446 7.6853124819465952
5.0184776377415332 11.5885635948563586 7.6847288433234731
13.8005642986967523 0.7242202026553052 7.6771787946257364
12.5460175351718597 2.8972321327537753 7.6916842606696800
11.2912235321757723 5.0701128091408414 7.6998840049674193
10.0362697616371896 7.2429846250597851 7.6845021078504026
8.7815762391634156 9.4158236448950152 7.6831052317010959
7.5273193126015725 11.5888081623958570 7.6840622691555156
-0.0019234470369136 1.4497436937987893 0.9960858113520296
-1.2535506700327794 3.6250790068823293 1.0112591295758087
-2.5048485490759043 5.7968395471393013 1.0073818536527934
-3.7569506029020361 7.9677935581428994 1.0079377935272213
-5.0156858362232617 10.1404181762536645 1.0097714575423065
-6.2718790716640944 12.3149307976979419 0.9939143982149722
2.5083881689838079 1.4469046967203187 0.9939413752203534
1.2479150992123524 3.6144676478664177 1.0056636936568155
0.0077844033370009 5.8077879418682148 1.0079985402053151
-1.2415930749238773 7.9707727972952060 1.0019989817547801
-2.5087983939684033 10.1403293041745215 1.0085603059012389
-3.7628612417285816 12.3128398697457371 1.0031328032217091
5.0197357838723544 1.4463119912381832 1.0094746442007003
3.7623697336110302 3.6148514568950332 1.0094624816794617
2.4953155857863654 5.7705108359092048 1.0081191755792425
1.2828396890960294 8.0015752450600708 0.9966868720739143
-0.0059818282521377 10.1438784714337427 0.9949566481895135
-1.2543150565307508 12.3130879748705446 1.0093978392930374
7.5307202296945475 1.4425685836353594 1.0087312878275889
6.2748805205116982 3.6167190252564363 1.0054914161607271
5.0134158373959199 5.7859016607582259 1.0069808289857045
2.4937765980539894 10.0989239626517815 0.9967129239924065
1.2582443736080822 12.3004764246557503 1.0030299531703339
10.0369420368644899 1.4437314503508187 1.0076303839408072
8.7828008798770778 3.6202516686642525 0.9949173815411545
7.5243654313842550 5.7963764376345246 0.9963667922872967
6.2779658968643322 7.9760921884731770 1.0077518591019079
5.0322466286538488 10.1644536717007377 1.0079410953415346
3.7561932675774354 12.3000173835097382 1.0071710378259364
12.5434562748015832 1.4459906928112323 1.0103979613839729
11.2923289973350887 3.6210278543853853 1.0046804097440332
10.0382342458855192 5.7946505253093390 0.9948941270850010
8.7873314450140523 7.9682615916310002 1.0065720689974897
7.5326984634287184 10.1450200998845368 1.0102765083035536
6.2758022151028552 12.3227162144146511 1.0045169462936807
1.2545827043176356 0.7243387359647414 4.3554428047412506
-0.0000774694035596 2.8971916188787992 4.3610153461435957
-1.2547295795317730 5.0700682027806110 4.3408858216744193
-2.5091336083858304 7.2431520673460019 4.3466715475815088
-3.7637743915464332 9.4161523591195220 4.3422515072053667
-5.0184428273109170 11.5890950276384288 4.3307926011818596
3.7637350219005437 0.7243685717498086 4.3300642157777123
2.5091251500726126 2.8972976790732643 4.3505886992884584
1.2543353679409659 5.0700549158421166 4.3461360048176214
-0.0000871072818603 7.2430204740584498 4.3514423057315783
-1.2544818420612407 9.4160907423368538 4.3619391425583371
-2.5092169260461876 11.5890770253339355 4.3356151120180817
6.2729535223990176 0.7242961588557382 4.3411762862273884
5.0183534832326027 2.8973399171652185 4.3478444299031800
3.7636012281911024 5.0703143407649733 4.3415625093881607
2.5084795372608180 7.2428148646989525 4.3322887346586922
1.2547037141877331 9.4160480737445855 4.3537634769436853
0.0000804778479578 11.5889727584838624 4.3601362965740735
8.7822127024216812 0.7242839101221490 4.3456212255085687
7.5276206341123117 2.8972203027726415 4.3524934243403512
6.2729915074526481 5.0702444342374768 4.3629730427637856
5.0184199840431143 7.2431456310831779 4.3363752045728372
3.7637386220457394 9.4169082440209895 4.3316231359123840
2.5092785783874803 11.5892086677274389 4.3500087269053802
11.2914263023557915 0.7245148217776666 4.3419713004831371
10.0368415812120055 2.8972552373388716 4.3306865174108644
8.7822951301231900 5.0701495085172104 4.3559430841049824
7.5275633360653433 7.2431429584242233 4.3611826765744155
6.2728055448483087 9.4162282704095031 4.3404873064798126
5.0183953034378010 11.5893689173974259 4.3471823575843844
13.8005817729771341 0.7244356528728152 4.3627867067419830
12.5459349566747722 2.8972839010817606 4.3363638247343737
11.2914144778813164 5.0701622732531924 4.3299348505396411
10.0368389304976731 7.2431532654920989 4.3510304076337469
8.7820979523558833 9.4161102970980011 4.3467742302236498
7.5275191321438024 11.5891133568344085 4.3520146615312614
7.5275039346363029 13.0377013570840816 7.6833317706196143
-1.2546349545391688 2.1729904679649050 7.6810522885382371
12.5459968393813757 4.3458665671592103 7.6998366336480926
11.2913748165746632 6.5187524507095018 7.6932073503794971
10.0367490744310555 8.6917478629154310 7.6845339097143572
8.7821517098571089 10.8647562471595922 7.6929861410193032
2.5091892631704025 0.0000180508777957 7.7068124137679650
1.2545585028161352 2.1730293187847529 7.6841425832095815
0.0000485299948592 4.3460351066145950 7.6814694900520673
-1.2545855611595107 6.5187946760615958 7.6845023860972139
-2.5092383534356637 8.6917243639888468 7.6803864895162111
-3.7638129828843754 10.8647241296271222 7.6994983119958187
5.0183901076299673 0.0000530569766400 7.6999425979953005
3.7637695456228819 2.1729777891129722 7.6938462495396092
2.5091683177560973 4.3460347304523816 7.6858831943375394
1.2547675606695432 6.5191465164805553 7.6967716339626282
-0.0000913970159632 8.6917531258780407 7.6858651922593131
-1.2546502844601575 10.8647848521315940 7.6824906157044381
7.5276153596000528 0.0000945684608893 7.6807647419918057
6.2730161547638161 2.1729998942382229 7.6841732861979217
5.0183555112595073 4.3458916971976898 7.6806629632036900
3.7638294314424168 6.5187537666583877 7.6949119849999112
2.5087340231419177 8.6920712076434423 7.7011365270654517
1.2545925768348725 10.8648574868566765 7.6866860144940521
10.0368205977404017 0.0000365954386243 7.6848602306476703
8.7822660502441092 2.1729932617108796 7.6923403057579653
7.5275787763164637 4.3459396603238174 7.6840629334330250
6.2728537559438893 6.5189321607508397 7.6823952420321504
5.0184941090596240 8.6918295697317554 7.6953630183142439
3.7636206324629415 10.8644606229575107 7.6976621487655441
5.0183021761995761 13.0375938206917112 7.6810824634335706
11.2914201590357219 2.1729468200890940 7.6993763028852245
10.0368526361543395 4.3458546388823187 7.7072465221206814
8.7821428057239430 6.5188385807482874 7.6848634938611715
7.5275770852727986 8.6918386943846944 7.6810308856235396
6.2728634926322364 10.8647100679263868 7.6855299755453022
2.5093376384137276 8.6917029646144837 0.9978078274926253
3.7030325450302004 8.0025499598191203 1.0036524145076602
