rBN 3-layer slab
1.0
15.0551462173000008 0.0000000000000000 0.0000000000000000
-7.5275736112000002 13.0376828894999992 0.0000000000000000
0.0000000000000000 0.0000169606000000 10.0278787613000002
B N C
107 107 2
Cartesian
1.2517601593469678 2.1684528326936015 1.0121402773644506
0.0018276685926125 4.3509488047240090 1.0098873135997593
-1.2502956233503810 6.5207876811340428 0.9979861787975012
-2.5038005042321094 8.6922187817892791 0.9879551080430978
-3.7645820041316802 10.8644931705318424 0.9896918300725848
-5.0180942640280088 13.0370079838578281 1.0019772682942432
3.7639662212778306 2.1693496817398810 1.0233252748272865
2.5020540185800306 4.3281091240482397 1.0217420036456086
1.2712345889140328 6.5223771598723168 1.0102155673223738
0.0034583715950747 8.7043077481216180 0.9986337710457110
-1.2614404307477018 10.8680985767175731 1.0000956393530054
5.0176572302131621 0.0000692423458905 1.0126478760582394
6.2751261343023055 2.1696026240060311 1.0237374814174753
5.0188051425239575 4.3424245490783822 1.0226497822767904
3.7428025784574595 6.4962972682216700 1.0125318214768833
1.2449820699417209 10.8546583232633811 1.0019397788904809
0.0017958307144950 13.0321024292400711 1.0130163589758989
8.7830541202556667 2.1710012302062096 1.0134277927955713
7.5264866243223612 4.3468559021531163 1.0130970728179862
6.2634917164230943 6.5240471079066218 1.0029015230169989
5.0271557215221465 8.7205827778964746 0.9940071938244940
3.7687217628378602 10.8477785917995817 0.9939026225861474
2.5092630002722580 13.0322718893681788 1.0038487336148232
11.2906679191378707 2.1713708434003691 1.0027557117160164
10.0370726878613308 4.3454213856902868 1.0016669059827477
8.7806371146664954 6.5188855224533722 0.9916267427509523
7.5306894533780788 8.6925888483776053 0.9823976446519920
6.2845910765183319 10.8790694886430561 0.9827335747428402
5.0146159494671814 13.0328363138226120 0.9936800376737780
13.7987652372629892 2.1735328519671975 1.0018077732467643
-2.5085123773602795 4.3467110664298492 0.9999755282395093
-3.7619158216498110 6.5184547417893963 0.9892233819972420
-5.0145335577680132 8.6909476821496519 0.9797193361896688
-6.2699808154360648 10.8656225754319848 0.9810442571828759
0.0021486260532850 0.0039425515453663 0.9922906485893764
0.0000138624985841 1.4486851545906028 4.3425657842898326
-1.2545406199112161 3.6214583558166704 4.3502843695488362
-2.5092846630169410 5.7943690119132727 4.3715004819888401
-3.7641681531638067 7.9674848071063753 4.3847442310876392
-5.0188928730600724 10.1404952225878979 4.3768914189593149
-6.2732425496647020 12.3134581611778078 4.3558363971991652
2.5091430385459232 1.4489683853333564 4.3300748113694638
1.2547208289246405 3.6216928425673389 4.3371882894999585
0.0002532154976427 5.7941647553921447 4.3585668656594025
-1.2545495987173436 7.9673212582991404 4.3730020134302103
-2.5094307372384748 10.1406269287551076 4.3656949344261662
-3.7640479807298792 12.3137006527873556 4.3442973567106185
5.0183206522087991 1.4492140789169190 4.3115597187534709
3.7639056888161853 3.6223521892959498 4.3171879774551689
2.5096077836986517 5.7950564208357012 4.3381300376366525
1.2558314454604953 7.9668136791741473 4.3533002771612308
0.0004199424989419 10.1404465588630970 4.3465016099815381
-1.2546423408671954 12.3137712617137929 4.3258700189020445
7.5276166489574701 1.4490866348450138 4.3051371948241028
6.2729430805039526 3.6222745118599673 4.3111417528431923
5.0183457758204053 5.7955238162009506 4.3298069471554301
3.7641268926827185 7.9675492949818256 4.3370955668705706
2.5105954566110880 10.1400748911331462 4.3389705913845651
1.2549907287105664 12.3136853216415272 4.3185339868970241
10.0369967573918064 1.4488885417857018 4.3172624778475601
8.7821110474073905 3.6218669649501205 4.3243143185033057
7.5272282393687586 5.7948484433804310 4.3436907341121298
6.2722043890421713 7.9673412094106739 4.3557368098129725
5.0182451338928660 10.1401503292687671 4.3499265031621226
3.7643556965535176 12.3135741920018553 4.3299654154126159
12.5461275654804947 1.4487203963878872 4.3360751953317047
11.2913558305040542 3.6216113467930633 4.3437748133573209
10.0364795574570298 5.7945763637217960 4.3640795451625820
8.7815346680014059 7.9674312485098406 4.3765881993090678
7.5269860125889823 10.1402432802808153 4.3688311240928899
6.2729761618019060 12.3134100740114487 4.3488932113965317
1.2545602481947364 0.7245358479921221 7.6876611745445214
0.0001909900385472 2.8973844240992861 7.6809303282314572
-1.2544634626605826 5.0699984942448078 7.6697066409441854
-2.5093489516110461 7.2429056027171965 7.6652052523192182
-3.7641649275616507 9.4160876734857908 7.6720253293262104
-5.0187036450780829 11.5891905766996430 7.6831716175365754
3.7636512679511238 0.7248148597003170 7.6906806220958570
2.5093475069163205 2.8977713789457034 7.6840526531921238
1.2550990561413882 5.0704112807759243 7.6741474297550676
0.0004115251472739 7.2426796553818109 7.6691704411970925
-1.2546357538311472 9.4160042118453049 7.6757253630493132
-2.5094435704622695 11.5893640392733488 7.6864161925527688
6.2728293142964375 0.7248698298026056 7.7008619027652525
5.0183055724837944 2.8980141648462570 7.6938533939791780
3.7641139750037382 5.0711909749669006 7.6825374532551258
2.5106244887857669 7.2436510309677775 7.6796241657467412
1.2558809328314424 9.4154004409736558 7.6838029981029550
0.0000910046985210 11.5892944171319261 7.6971191773207623
8.7822434329524679 0.7247206192213378 7.7076365353159950
7.5273935946065382 2.8977845434523082 7.7006040516199352
6.2726763354497814 5.0707985917138894 7.6902296801432248
5.0179577842695746 7.2433557816400596 7.6866343384821372
3.7640365945322785 9.4145800568248106 7.6933392070832722
2.5097574769065205 11.5890308997120908 7.7042092742393962
11.2915772539613055 0.7244690607883258 7.7047189769139379
10.0367108145250263 2.8974952465442909 7.6975034860093707
8.7818212756344085 5.0703781894064512 7.6864312276741744
7.5269063899729618 7.2430515629704537 7.6829338884184049
6.2722870138239060 9.4153483550728012 7.6888626969251321
5.0184395266229425 11.5886192699716446 7.7016808960675789
13.8006184495885158 0.7243165679602942 7.6947291784792560
12.5460388119455359 2.8973052122688392 7.6877677360116330
11.2912044828513878 5.0701445630800555 7.6764970696488426
10.0363098763204572 7.2430314939230236 7.6721901815457212
8.7815912660397366 9.4158796255018355 7.6791016801016942
7.5273124784565795 11.5888763105490611 7.6904361252323907
-0.0020793654256468 1.4494105908599813 1.0047226715844462
-1.2537642035721712 3.6247821862797078 1.0069761433597337
-2.5049768712751113 5.7964946853942934 0.9972811202014552
-3.7569965634310787 7.9674162202290164 0.9853460356482229
-5.0157439966633781 10.1400556575285101 0.9819668172007188
-6.2719692959405791 12.3145516993675948 0.9917355120592323
2.5082353738461158 1.4465812803925315 1.0177855771582567
1.2477305639941780 3.6141635197937423 1.0198689730155550
0.0075899160726395 5.8074201483510448 1.0095616650000228
-1.2417586296991734 7.9703516109105577 0.9962144948037490
-2.5090164869481231 10.1399330835371728 0.9931444923750535
-3.7630726371248682 12.3124772895517562 1.0039355794591824
5.0194918639304040 1.4460240705859080 1.0265743330109731
3.7621771437949834 3.6146123760259714 1.0294062276958373
2.4950845974496421 5.7702272503067933 1.0202620493641590
1.2825942597026010 8.0011461455609556 1.0066166571836410
-0.0062167214430350 10.1434385837327916 1.0024032124408133
-1.2546165668753204 12.3127169392354290 1.0128645224707700
7.5304812814108057 1.4422885495459190 1.0219850780199604
6.2746930156145728 3.6165348100956694 1.0261681178649655
5.0132049310214537 5.7856948545604334 1.0165355347231801
2.4935661604850154 10.0985741623454626 1.0017433399572315
1.2580021551479115 12.3001156882875211 1.0092728366726462
10.0367562306862421 1.4434393122560709 1.0099807471359097
8.7826905343521702 3.6199860616798594 1.0134966648978792
7.5242781700979542 5.7961424095412415 1.0053041799638576
6.2778267039483673 7.9758200342575423 0.9937103423467529
5.0320831900599341 10.1640832361502671 0.9893567777270341
3.7560239366591515 12.2996538505706123 0.9986124944246786
12.5432492009317578 1.4456980805537822 1.0013249927800527
11.2921657327505827 3.6207605461201884 1.0039716460754384
10.0381778021912051 5.7943471314221568 0.9951923259078120
8.7873323342857681 7.9679658503373405 0.9835405261896598
7.5326233488391710 10.1446876638167893 0.9805313503525465
6.2756806969894683 12.3223566028167539 0.9893365119339124
1.2545433420931673 0.7244043655321148 4.3448915057465811
-0.0000947046373111 2.8973034156666180 4.3451128666635626
-1.2547017326038006 5.0702314923293281 4.3648903834349708
-2.5091608988963907 7.2432989350735211 4.3844769993083181
-3.7637866285667858 9.4162457302031477 4.3840715563225423
-5.0184227331641313 11.5891494955237526 4.3643843566819598
3.7637797877223456 0.7244084720084435 4.3277717905119406
2.5091192618286917 2.8973871058593543 4.3267928415736048
1.2543749373499455 5.0702170672381044 4.3463324500834748
-0.0000610295392721 7.2432179159616519 4.3657771847588247
-1.2544884732555650 9.4162278984283319 4.3666505509798172
-2.5091584536083200 11.5891379066882667 4.3474142555963740
6.2730694248495418 0.7243752812979518 4.3104865350612345
5.0184212507279842 2.8974177969157906 4.3094182308632023
3.7636758926450757 5.0704422480740980 4.3272445818192820
2.5086109209988261 7.2429934050790692 4.3484763617149511
1.2547768919172586 9.4161913939847572 4.3457734900707994
0.0001528339387793 11.5890910270429508 4.3291695544741282
8.7823389536190710 0.7243644720996106 4.3096946424058320
7.5277244320683545 2.8973265533293180 4.3099514839521111
6.2730794604869287 5.0703885045112687 4.3281269295408800
5.0185661596508249 7.2433271993516062 4.3474873304112318
3.7638780365385571 9.4170644570118824 4.3481985671556727
2.5093716068792893 11.5892922229537358 4.3276276318917075
11.2915047515772731 0.7245496221386020 4.3270936576804448
10.0369431640266367 2.8973383280856666 4.3278085310448038
8.7823381342563192 5.0703175936735256 4.3465815327929365
7.5276282167045228 7.2433614709238023 4.3648480087747670
6.2729249633786903 9.4164197885990326 4.3640223198510419
5.0184640883997940 11.5894670192630258 4.3455996239208714
13.8005698077437717 0.7244918931988151 4.3447509383504732
12.5459883341229030 2.8973566232411190 4.3454598939057405
11.2914464372379371 5.0702971882491541 4.3649861991317209
10.0368195648746692 7.2433228848113478 4.3836167202430403
8.7821243479853592 9.4162764026100287 4.3829020726651882
7.5275348388704497 11.5892262163413342 4.3634179811406275
7.5275261557774789 13.0378236840628823 7.6943941415221158
-1.2545694871473243 2.1730172916976276 7.6907881605752850
12.5459913733292066 4.3458451969348673 7.6791124144830682
11.2913749738335607 6.5187772286383607 7.6711497503825674
10.0367852232377519 8.6918330537408988 7.6744819219957714
8.7821292643053219 10.8648893435085085 7.6860702565274082
2.5092279378839488 0.0002235738795505 7.6899744173107170
1.2546541446521808 2.1731347659688498 7.6865875423888790
0.0001171025818994 4.3460113735523365 7.6753502074082389
-1.2545261925603379 6.5187889073725485 7.6671995287224126
-2.5091079735788249 8.6918247512099231 7.6709163234894842
-3.7637205737981390 10.8649138099442020 7.6819560061131167
5.0184473718085760 0.0002076365852066 7.6967261741939934
3.7638174767204169 2.1731261631678089 7.6927949521188932
2.5092451424157995 4.3460888854663331 7.6819885908624617
1.2547986956467494 6.5191228514426722 7.6767719665207705
0.0000290865255974 8.6917951509769154 7.6790700773737175
-1.2545104374016811 10.8648923981241303 7.6895589090061991
7.5276199960266883 0.0001529553031085 7.7080518598656358
6.2729810137342312 2.1730455980013805 7.7035580049364469
5.0183833253646668 4.3459102873768769 7.6916158273027708
3.7638655854314491 6.5187308373858537 7.6809364909681737
2.5087681238450492 8.6921274159374100 7.6829418827635410
1.2546490202251070 10.8648937435773796 7.7016100967295502
10.0367648112156012 0.0001309098148956 7.7119789615716803
8.7821510558029292 2.1730037613976849 7.7075161299142838
7.5275206924474816 4.3458744496878863 7.6958712760936283
6.2728461428149069 6.5188442001267450 7.6889647509970489
5.0184736062706508 8.6918219954659861 7.6883508871999826
3.7635675088731482 10.8645064945579346 7.7067611351641876
5.0182787291588662 13.0376950070260182 7.7055203479876413
11.2913617877398700 2.1729892794577759 7.7013987255858831
10.0367514774429392 4.3458299157549494 7.6894515493611832
8.7821142103353527 6.5187767950131867 7.6814990050718048
7.5275407255750562 8.6918041707309133 7.6851368252620427
6.2727961582061535 10.8647692412519934 7.6976193974434084
2.5091235093279716 8.6913420163073223 1.0047956196556067
3.7028438652334046 8.0022362340878477 1.0073191226004825
