rBN 3-layer slab
1.0
15.0551462173000008 0.0000000000000000 0.0000000000000000
-7.5275736112000002 13.0376828894999992 0.0000000000000000
0.0000000000000000 0.0000169606000000 10.0278787613000002
B N C
107 107 2
Cartesian
1.2511092675221087 2.1673657299301459 0.9840714680717462
0.0012610426679749 4.3500380767497129 0.9646838372232226
-1.2507553232630579 6.5200210647463859 0.9610919283323831
-2.5043724508754486 8.6913663650756838 0.9760059406372074
-3.7652515284161066 10.8634824839340869 0.9967643901167954
-5.0187830304400558 13.0358825085774761 1.0013226841961136
3.7633377329923210 2.1682099841302231 0.9885851592462297
2.5014499708345843 4.3270839309744735 0.9666436686188328
1.2707770223297237 6.5215423138987001 0.9659879312050001
0.0030005210893427 8.7035462876746958 0.9819887404631048
-1.2619835075175316 10.8672088621574652 1.0015302592077580
5.0170603761843182 -0.0009881025083706 1.0064567134553548
6.2745606995711114 2.1685580008502217 1.0111108428056397
5.0182077998845376 4.3413624240679827 0.9886801576411783
3.7422788114215804 6.4953786558125675 0.9843068727960926
1.2445135964291540 10.8539104049605442 1.0208264452325315
0.0012956405107936 13.0312161955329611 1.0271600986179319
8.7825294138773291 2.1701192143752626 1.0279695498071622
7.5259013225876252 4.3458755441461339 1.0068469112384544
6.2628917493633018 6.5230684501053133 1.0018877659236840
5.0265815965167349 8.7197037826761168 1.0206467746133352
3.7681913624760117 10.8469976457099690 1.0381651058255372
2.5087886786304874 13.0315279316423709 1.0422050951259743
11.2901680821104939 2.1705065557029681 1.0227911451278651
10.0365181456285288 4.3445205139363168 1.0020318364198109
8.7800256560293199 6.5179212967684927 0.9972115060979772
7.5300222153284784 8.6915808089593920 1.0145260690638158
6.2839671700267514 10.8780738076932373 1.0361065395784792
5.0140708480778695 13.0319227242284281 1.0384675101554763
13.7981876547915885 2.1725907239046593 1.0014772378670813
-2.5090610574062078 4.3458692613505665 0.9808154194286298
-3.7624731812519103 6.5175840147514235 0.9758412907112831
-5.0152096185915509 8.6899713754568175 0.9923942989648927
-6.2707000127826147 10.8645515641286217 1.0142942689577465
0.0014814521696750 0.0028744955418078 1.0184687917286133
0.0004114418115320 1.4492779127552413 4.3437203683478929
-1.2541440630099681 3.6221778263305580 4.3228309347322229
-2.5088663831446421 5.7951106043792882 4.3113523692256832
-3.7637207655133449 7.9681356029097330 4.3210004216657927
-5.0184670025037139 10.1410173613652326 4.3421730844192394
-6.2728366479232571 12.3139588351835165 4.3533268312367825
2.5094616379106953 1.4495236054088694 4.3337620101778267
1.2550272000796365 3.6223375208650670 4.3132751229489976
0.0005611117604212 5.7948298546164887 4.3021697685470111
-1.2542015740532797 7.9679170932947594 4.3115461614922577
-2.5090808829888478 10.1411242447315981 4.3327734759468095
-3.7637221012382631 12.3141699221328675 4.3438432367902653
5.0186444852217669 1.4498009790477382 4.3456293331435996
3.7642236221859826 3.6230135899644709 4.3240504109874500
2.5099017678154865 5.7957047747157118 4.3144285665045468
1.2561692245864000 7.9673684715412483 4.3245087460119773
0.0007688635956038 10.1409600382060905 4.3447445931018978
-1.2543106292688861 12.3142782361499865 4.3560943516157886
7.5280282774601499 1.4497560048859177 4.3675361930107526
6.2733518569815132 3.6230189102203498 4.3455823327187453
5.0187453161209739 5.7962194756747278 4.3333978152045409
3.7645218110885832 7.9681281924995488 4.3367024814139947
2.5109893190354979 10.1405947706317789 4.3656158693692202
1.2554023680860236 12.3142337345315802 4.3775961917409543
10.0374941583465400 1.4495747121374463 4.3772033190752424
8.7826127995403080 3.6226663629858638 4.3557820261491402
7.5277362190265027 5.7956316180627416 4.3437900152918116
6.2726951049570534 7.9679799995426155 4.3523535818078090
5.0187436816288615 10.1406713427149970 4.3736301518221676
3.7648522921777818 12.3141223139620024 4.3861340252134386
12.5466262565159443 1.4493775895550221 4.3651667178264644
11.2918540794201459 3.6223924576664506 4.3442117376815963
10.0369960420853079 5.7953681998494870 4.3326148093827532
8.7820553176171767 7.9681041771245145 4.3420495462662299
7.5274848563146355 10.1407916876219666 4.3626496158496870
6.2734599413501391 12.3139406777435862 4.3743540861273722
1.2548011497113234 0.7249640370954000 7.6865206351454010
0.0004209619140851 2.8979387323617991 7.6646345129473668
-1.2542425324260200 5.0707002961394831 7.6458539103208940
-2.5091181702182372 7.2436213640573559 7.6489223366736629
-3.7639221414925093 9.4166774520499619 7.6709955718910736
-5.0184626262290655 11.5896320079863848 7.6896850932207110
3.7639060818272365 0.7252435296215940 7.6836827392647518
2.5096027500065978 2.8983278753190276 7.6616341430133001
1.2553293364735931 5.0711093403562719 7.6438320779634177
0.0006440854461443 7.2434012102622658 7.6461662240405257
-1.2543821635622450 9.4166071408220784 7.6681496990081035
-2.5091868061397520 11.5898152333863216 7.6868404410117126
6.2732083058074126 0.7253749909337184 7.7030022482296774
5.0186867623667206 2.8986422348290342 7.6810173395543417
3.7645002176303750 5.0719627094804478 7.6616531965789445
2.5109819701142277 7.2444345984556984 7.6651804386420785
1.2562771258993590 9.4161065164279005 7.6844248966533835
0.0004740232833096 11.5898207249707745 7.7060664398334362
8.7827339811035330 0.7252814043865505 7.7247979253668042
7.5278866858269549 2.8984796827950570 7.7032171109255296
6.2731648640627409 5.0716370409683558 7.6848679043595336
5.0184460586280792 7.2442261807707924 7.6875206455394842
3.7645160179222277 9.4152966684753405 7.7087037933865625
2.5102511348631245 11.5896027855904613 7.7277553240369752
11.2920581596836662 0.7250204904730767 7.7276600689704837
10.0371872152677906 2.8981782854489060 7.7061387843543123
8.7822975329835451 5.0712150347334042 7.6873907486688102
7.5273761662228367 7.2439039411164448 7.6904263654981762
6.2727486925952940 9.4160809713221543 7.7105155991947631
5.0189160834773414 11.5891843482563601 7.7312565437777296
13.8009698327230819 0.7248030998954150 7.7085432028538419
12.5463855800444186 2.8979230892019343 7.6869342205457567
11.2915465035266269 5.0709075990488941 7.6682452157654817
10.0366577334857165 7.2438160137140963 7.6712202464480859
8.7819386745006867 9.4165348356160390 7.6927611440794195
7.5276590078187375 11.5893858724405519 7.7116163111294531
-0.0027309832241583 1.4483473846371200 1.0038252853779335
-1.2543504410078654 3.6238990614280615 0.9805494119527384
-2.5054653808197389 5.7957114371766423 0.9679994422052363
-3.7576009323858872 7.9665449498486520 0.9788604401802813
-5.0164542349434527 10.1390290026646142 1.0027336304792309
-6.2726791229678742 12.3134199119954548 1.0159952892239539
2.5075483478198999 1.4454259358081281 0.9915842861849924
1.2470712779842594 3.6131257148833353 0.9681559308533376
0.0070940546266682 5.8065975537665899 0.9595141040773737
-1.2422656191170145 7.9695918314074001 0.9692912076810883
-2.5096275298212118 10.1390188667634522 0.9910411994676633
-3.7637331885289274 12.3113970797033581 1.0040260818495108
5.0189015966626380 1.4449164902414460 1.0055423127862502
3.7615191264444050 3.6135069809884524 0.9799360343556895
2.4945454529311157 5.7692816677035204 0.9676439571544958
1.2821808721791961 8.0003826938810967 0.9841806077854656
-0.0067076969838398 10.1426353177043858 1.0039247549824974
-1.2551522567415170 12.3117586011268596 1.0174443246967733
7.5299784792878643 1.4413619923187893 1.0298033127311610
6.2741321438875719 3.6154924043503365 1.0056972677657434
5.0126406996681183 5.7847087448658190 0.9917242009011221
2.4930734465391811 10.0978634019882243 1.0251458172189174
1.2575538640387680 12.2993300495344347 1.0385190241248177
10.0362763513410123 1.4426610027719866 1.0407049196431852
8.7821636132194492 3.6191054019934632 1.0178663182434209
7.5237000745499261 5.7952022590012717 1.0046043919889431
6.2772088537255417 7.9748729716514175 1.0163282327560115
5.0314957630143846 10.1631807634639308 1.0407407366275891
3.7555167708025547 12.2988458987445934 1.0490882097579679
12.5427298622678212 1.4447808659637316 1.0277297975733091
11.2916465316836501 3.6199175845406955 1.0045058404805398
10.0376268272796594 5.7934784306956448 0.9912967390960146
8.7866632477816129 7.9669946503192133 1.0029774157167872
7.5319564605163247 10.1436105982654787 1.0279674192208348
6.2750667374790714 12.3213070272421259 1.0394847926620183
1.2549473381516394 0.7250094566595819 4.3458285172829889
0.0002977494948403 2.8979419759448328 4.3252714189753014
-1.2543069785984715 5.0708859946456544 4.3074482903161488
-2.5087173492889852 7.2439426742549422 4.3098610388903094
-3.7633438827064709 9.4168455816707652 4.3310467256987204
-5.0180113310278722 11.5897288735793840 4.3489710424487535
3.7641531451179362 0.7250110182915090 4.3430787229621703
2.5094888987902788 2.8980055330934982 4.3221306551059957
1.2547054369397677 5.0708169758730159 4.3057689497249774
0.0003297634724324 7.2438269371307369 4.3070475243123560
-1.2540763076309727 9.4168264067362699 4.3279172848398284
-2.5087715823560610 11.5897239520282085 4.3461907133215307
6.2734409399521347 0.7250184654683371 4.3617157135049665
5.0187926449886575 2.8980721350975829 4.3403820472649137
3.7640439374112065 5.0710503039883177 4.3227318791917098
2.5089127753610105 7.2435017611346968 4.3288785754925829
1.2551999949869443 9.4168227170546910 4.3441963465029279
0.0005401409809657 11.5897008480415504 4.3645116138557141
8.7827417368475746 0.7250221974565769 4.3827989465373483
7.5281310119011629 2.8980340458808915 4.3618140284349529
6.2734871073980569 5.0710678154247919 4.3437440004337784
5.0189602871936607 7.2439070248246811 4.3474583327740834
3.7642551707396987 9.4175279565685948 4.3667112950011866
2.5097851178308175 11.5898862813846435 4.3844864213084263
11.2919519317202752 0.7251724723342745 4.3850648696847632
10.0373895418764949 2.8980377130834678 4.3647219113676163
8.7827985746373614 5.0710260443626440 4.3466723177979558
7.5280939677127172 7.2440032299330790 4.3494535265417831
6.2733546411207550 9.4169877227513865 4.3689690216098658
5.0188987435843995 11.5899978632216918 4.3867491724770371
13.8010090445680191 0.7251006625304957 4.3668054476423013
12.5464284003618278 2.8980276752107015 4.3463120475173183
11.2919044527756967 5.0709908782079367 4.3284200694645412
10.0373030011111659 7.2439824905662444 4.3312700002573719
8.7825828452725094 9.4168732161011022 4.3519597794900271
7.5279678281184896 11.5898034082265085 4.3694789767802336
7.5278606964466670 13.0382928233019442 7.7079931594204689
-1.2542454482317031 2.1735977945180069 7.6894276475185119
12.5463066485649950 4.3465836087175100 7.6654869553703104
11.2916966866578630 6.5195573267535520 7.6601622856051330
10.0371158164739995 8.6924983900469055 7.6784032982344694
8.7824563783364535 10.8653960465253121 7.7022020934521782
2.5094595733305853 0.0006282417006930 7.6892856631676496
1.2548834171953338 2.1736652577699038 7.6705170395083746
0.0003275099984625 4.3466947130263032 7.6468424979105638
-1.2543101917436306 6.5195111883437740 7.6411645834395880
-2.5088718556132563 8.6924272341419133 7.6602237873602217
-3.7634867499351583 10.8653603129774528 7.6839721774308050
5.0187129081489426 0.0006322412085582 7.6952490089186618
3.7640862830116841 2.1736612138831584 7.6762339281034206
2.5095018272402321 4.3467878228970465 7.6524365892693664
1.2550136836314663 6.5198272825172685 7.6493648323104537
0.0002832801186028 8.6924111730768701 7.6667440867797767
-1.2542451962482288 10.8653608815301048 7.6902700656440279
7.5280105999491376 0.0006601826272211 7.7200500643771655
6.2733814137852164 2.1736647941735745 7.7009933160376072
5.0187859518049303 4.3466830787982111 7.6764208557395017
3.7642777570108596 6.5195795067950009 7.6677716059388006
2.5091863159906471 8.6928763275969345 7.6835055895183562
1.2550392767590606 10.8654292922047251 7.7151774799015884
10.0372630582236173 0.0006836894563211 7.7381753943711118
8.7826488600019772 2.1736750917398098 7.7195818037363759
7.5280203827428211 4.3467072620867659 7.6955095465718575
6.2733351706811629 6.5197104939286454 7.6901364483187828
5.0189849974220326 8.6926155226638251 7.7028096091745129
3.7640570628657408 10.8650609314286939 7.7343915010813005
5.0187475031526345 13.0382289942925578 7.7323242083050374
11.2918240234114808 2.1736403190091216 7.7140763932698206
10.0372095739847715 4.3466409170472389 7.6899427023330640
8.7825740995851369 6.5196347296745136 7.6840494780438897
7.5279988069697801 8.6925477993915603 7.7017318823971213
6.2732593040160722 10.8653494743992010 7.7266375623475323
2.5086681960727675 8.6905979393180015 1.0049517724604593
3.7023020181673831 8.0013493013546615 1.0068108297741063
