rBN 3-layer slab
1.0
15.0551462173000008 0.0000000000000000 0.0000000000000000
-7.5275736112000002 13.0376828894999992 0.0000000000000000
0.0000000000000000 0.0000169606000000 10.0278787613000002
B N C
107 107 2
Cartesian
1.2519916554563755 2.1689389269457049 1.0176821635476390
0.0020605657000559 4.3513904276101316 0.9809364989217122
-1.2503104594449768 6.5210386310952968 0.9954736444142865
-2.5036287285490975 8.6925844836628521 0.9818414998225631
-3.7642668138155848 10.8650016357152381 0.9946842868991566
-5.0179755013948233 13.0374430223776976 1.0460627905921185
3.7640254676265759 2.1696173407690109 1.0073053051435186
2.5022668988651748 4.3286549523347260 0.9885380778288843
1.2714271270244426 6.5228447867675525 1.0161431590067507
0.0036690012664041 8.7046477490232892 1.0227768503819552
-1.2609691602406810 10.8684274833514145 0.9844106909874746
5.0178996271431293 0.0002725525457306 0.9943032592837303
6.2751109093895394 2.1696274567326785 0.9864072338065173
5.0189470606839288 4.3425037338807391 0.9776334587412499
3.7431469989061621 6.4966156048810957 1.0033020584225967
1.2453037878465387 10.8551592798267684 1.0220287327752222
0.0020833433942767 13.0324993739595119 0.9839472571796603
8.7831253419925428 2.1714100558791563 1.0123888112532036
7.5265419508968003 4.3469281210014641 1.0172821413497370
6.2638128071640571 6.5241464602566879 0.9856460174693165
5.0272940013717227 8.7207645639182410 1.0026378152203357
3.7687406946576951 10.8481542633828880 1.0127075010242959
2.5094388238063603 13.0328850331245700 0.9945299910248018
11.2908958389511849 2.1717474630007807 0.9914726178362319
10.0371154798009385 4.3456999283366464 1.0413814156780437
8.7807768063151777 6.5192543094108943 1.0161449724844704
7.5307855564724511 8.6930152723357708 0.9795446746434815
6.2844414712082957 10.8793590643694920 0.9890663110314140
5.0146686014076032 13.0331548351121995 0.9784580074896911
13.7990811976257959 2.1738062623408188 0.9757991991985953
-2.5083901127719490 4.3468949603374876 0.9914877689983288
-3.7619587719051686 6.5187912332009414 1.0090670583313517
-5.0144264809613537 8.6916097732623783 0.9857220599148405
-6.2699859264034821 10.8661970774141690 1.0109944929780244
0.0021818718518426 0.0042788459505459 1.0188092907874697
0.0000659121049673 1.4486100224226011 4.3545539063135026
-1.2544699990690169 3.6213487107100879 4.3219244830824231
-2.5095234274596541 5.7941305768966016 4.3388690788404407
-3.7642661760996265 7.9674347936710701 4.3295050422331069
-5.0188704182542976 10.1405777973612103 4.3393256299890641
-6.2733708625242333 12.3133945976270436 4.3812569666087571
2.5089693356232372 1.4489575300486124 4.3790475884053963
1.2546853600632091 3.6218743335026513 4.3370595446004359
0.0000534981373233 5.7940635522700790 4.3330619810445947
-1.2547717171668336 7.9670024265566592 4.3363006048634292
-2.5093397459507085 10.1403753043252323 4.3203397016230429
-3.7640769424759810 12.3135097687143720 4.3593878022722325
5.0179835491984619 1.4489554451234223 4.3382192270235604
3.7636615345223978 3.6223545033936206 4.3296334317581664
2.5095273477607685 5.7951181892605561 4.3391349442409943
1.2556965736937609 7.9666090295240668 4.3806066947126148
0.0003924990962724 10.1402072766928004 4.3542530615991391
-1.2546496089497692 12.3135152887651387 4.3213843100281091
7.5273494412962609 1.4490709226365850 4.3328001575392907
6.2726545285027404 3.6220552667636960 4.3362631388106943
5.0183844611189041 5.7953194681523543 4.3200417055657914
3.7639944385845325 7.9673456289468394 4.3504942442492132
2.5104960735088371 10.1399093949156924 4.3784398916309879
1.2549135771326392 12.3137740934739703 4.3362279853796641
10.0369391924886155 1.4491049162243652 4.3399454485189564
8.7819277054825751 3.6218973204423976 4.3811485152417582
7.5272727226879637 5.7947081075427507 4.3543825567111929
6.2722786183332646 7.9670772297155388 4.3210811997127490
5.0180315517440004 10.1398302924083463 4.3380880917167293
3.7642265590990727 12.3135509074336049 4.3297194680022182
12.5462298798323264 1.4486276454915223 4.3207946826436752
11.2913420507978319 3.6215717991868104 4.3599089003243856
10.0363664365910950 5.7945699104682218 4.3789043258456219
8.7815894968094259 7.9675211677349003 4.3361457104774201
7.5268262740309062 10.1401445651265636 4.3328607752049821
6.2727841832783913 12.3131510733611158 4.3370402002464736
1.2545677868897722 0.7243465520519528 7.7338716660645357
0.0003646137615249 2.8972821153870529 7.6746505137243686
-1.2545318023091387 5.0698188439590890 7.6651949331684541
-2.5095518732945199 7.2427126985054500 7.6717530318238474
-3.7641264363616225 9.4160594402742870 7.6626256364518595
-5.0186646010192133 11.5890891853586666 7.7151830986082146
3.7636036843508078 0.7245346424701414 7.7131129268341079
2.5093417296506497 2.8977973212252461 7.6935722287662083
1.2550957927529447 5.0705568369929841 7.6740310523041462
0.0002519612238162 7.2426018577483706 7.6974227471806866
-1.2546355365941162 9.4157812012382003 7.6747881029443059
-2.5092493487371557 11.5890757186536675 7.6699083750165711
6.2728282712569623 0.7246333032534480 7.6644437432272250
5.0181855002753624 2.8977975660319664 7.6701299118003883
3.7642018144686338 5.0712549981366362 7.6623798356193502
2.5106201249011351 7.2437262342543915 7.7145677991436772
1.2557784885157575 9.4154367373624073 7.7296207004685202
0.0002605341052974 11.5892687096351139 7.6754135729495543
8.7823627155456059 0.7248590334634909 7.6743817087200892
7.5273496885426932 2.8976852208036639 7.6964828092578195
6.2728130003876874 5.0706550904346868 7.6742747668320943
5.0181644995045307 7.2432775353905976 7.6713255953085540
3.7640110696975477 9.4145898524637932 7.7125102366140341
2.5098102522586516 11.5891336437881272 7.6942309983043371
11.2917449388497548 0.7244528620321669 7.6634376633696588
10.0368349746064354 2.8975221527724346 7.7156049170423371
8.7818917278420265 5.0703753423374041 7.7327851881252689
7.5271051783528611 7.2430937137379523 7.6748333320417874
6.2722703694520829 9.4152267734916677 7.6642211959888540
5.0183544841382179 11.5884551677915439 7.6715465316868947
13.8007440431862705 0.7240125572897830 7.6741730674514708
12.5462704277178450 2.8970772011788348 7.6701232840490912
11.2911597101637469 5.0700017757605060 7.7136032069113734
10.0362934057518913 7.2431401065419054 7.6932385824407330
8.7816029488196605 9.4160115386339047 7.6727648730581146
7.5271981557721128 11.5886680082749045 7.6969675625703484
-0.0018373167722544 1.4497226178584224 1.0114073676674868
-1.2534987596579521 3.6250697864818542 0.9689572648802088
-2.5050483750701131 5.7967041677390778 0.9990267477769496
-3.7569664642433152 7.9679199607078823 0.9867516596157619
-5.0156091424899696 10.1407411513351171 0.9962965264231297
-6.2719797553997241 12.3149594285256470 1.0519103052989582
2.5083272428751084 1.4469878177536117 1.0487067250176370
1.2479470120778395 3.6147381171514237 0.9925595815333000
0.0076760210181890 5.8078762991008848 0.9975963445191051
-1.2416916176245685 7.9706260935534781 1.0014438483303849
-2.5086362873072949 10.1403025076650657 0.9743293514294686
-3.7628508081715442 12.3128247060857312 1.0242964359403366
5.0194989310666500 1.4460780470313839 0.9941547837109168
3.7622236048086419 3.6149226278257172 0.9840756950922738
2.4953293659879798 5.7708007480005294 1.0026184615340956
1.2828008049731290 8.0016048069034245 1.0476179012207489
-0.0057799983956598 10.1437888044338109 1.0188418181780123
-1.2542146279366906 12.3129742524667556 0.9755474415639678
7.5305972096983709 1.4425473530140511 0.9906594961475469
6.2747265155208423 3.6164757865252475 0.9895976497701865
5.0135394756175460 5.7858483825913476 0.9788961260373783
2.4937475584227049 10.0989396666212397 1.0454163847327345
1.2583266433883369 12.3006630275102697 1.0016915173739971
10.0369572425703986 1.4439761329357175 1.0005416028055070
8.7827614957288702 3.6202649465901953 1.0479319189727192
7.5245456558505532 5.7963118136543876 1.0134049641068006
6.2780737085214060 7.9760349206155263 0.9796986798689004
5.0319979830127517 10.1642936259278471 1.0003246720413628
3.7560761896168016 12.3000657688427992 0.9933698667292693
12.5435033226702810 1.4459547058967104 0.9673564202636989
11.2923245114585420 3.6210268733443600 1.0183868372149234
10.0382236771202056 5.7947063259364899 1.0450241341436142
8.7874784832008785 7.9685566019751626 0.9896781555414775
7.5325503573068229 10.1451281629327816 0.9880198617752034
6.2756012822033478 12.3225741240824505 0.9922163113376786
1.2544920723497328 0.7243936225609320 4.3980690585494573
0.0000361393439146 2.8972836595154936 4.3339988401573502
-1.2548434765563270 5.0699935883788916 4.3220574671197722
-2.5093968656699426 7.2430097059583085 4.3288331096208967
-3.7637338385547570 9.4162641132203841 4.3191968722366694
-5.0184468011778565 11.5892327263313408 4.3764535537372691
3.7635869591824558 0.7242651747674294 4.3743301808998893
2.5090046142927225 2.8974799366070809 4.3547161454513716
1.2543132089936548 5.0703396302155754 4.3323857283913112
-0.0002210010689841 7.2430281371315095 4.3562431932849606
-1.2544307783384221 9.4159421467890407 4.3322655483377028
-2.5090261113431165 11.5889515350636891 4.3266005677368558
6.2728510194249054 0.7242014179311100 4.3212005325486729
5.0180703666981881 2.8971749094321559 4.3288320809210568
3.7636370251623124 5.0703906458228145 4.3197743308549033
2.5085715055196900 7.2428841991499597 4.3753579587750915
1.2547495431556985 9.4160322912700511 4.3948525852097431
0.0002293506819191 11.5890284220222810 4.3328910207932756
8.7821902580914912 0.7245938998080867 4.3315533160767865
7.5274002361689156 2.8972157678264385 4.3576680487432640
6.2730431851434814 5.0700555444668929 4.3339763081203175
5.0186870220270023 7.2429826386191296 4.3291133003040896
3.7637177228603846 9.4167942003821139 4.3734683282810272
2.5092074773975046 11.5893368267110102 4.3527369179613347
11.2914438887551434 0.7246410453360863 4.3199290703525008
10.0368107609913526 2.8974237401721945 4.3768678922769499
8.7822219419688139 5.0701936163065549 4.3979640744635420
7.5277431488866826 7.2432076713490359 4.3345500596071700
6.2727395788238702 9.4161592681655648 4.3217642999818313
5.0181530128765202 11.5892488378584826 4.3296270544443916
13.8005827844242095 0.7243019012532985 4.3332747924919222
12.5460853899529781 2.8971876900338578 4.3271939952355734
11.2912411128009946 5.0700848693105600 4.3747741434095593
10.0367330580736684 7.2433442973999140 4.3541317862791917
8.7820820587598050 9.4164318826246802 4.3314979338778015
7.5273044072717736 11.5891264549464967 4.3581588948830277
7.5275625232960417 13.0375318213257714 7.7174840326526182
-1.2542673382271596 2.1727826922363516 7.6630739717967549
12.5460340243958619 4.3456535892824943 7.6819750099554769
11.2912206873120251 6.5187021244872705 7.7007902046453767
10.0368160010171401 8.6919984109633166 7.6693334300785931
8.7821172338724516 10.8648834218880488 7.7045813135099852
2.5091881105633655 0.0000088556086483 7.7536678206476584
1.2547378478089222 2.1730778222968792 7.7156657486613991
0.0001593567300622 4.3460335096091063 7.6597679538587133
-1.2547738373874062 6.5185892882980063 7.6734052513782007
-2.5091995033431820 8.6915953369829619 7.6575843936434449
-3.7635964002055942 10.8647533641452050 7.6814167158910873
5.0184519930108937 -0.0001720507743667 7.6812603672031781
3.7636438105846435 2.1729344713219012 7.6995547582295885
2.5092485891749945 4.3462958596995511 7.6702630606654214
1.2546707959253867 6.5191831153801241 7.7069490589768419
-0.0001427570060222 8.6916080877149522 7.7183676087224207
-1.2543149804565956 10.8645912872466859 7.6641952990770079
7.5277301235473955 0.0001351183836024 7.6607808374539514
6.2728248203990296 2.1728150997779689 7.6708616652419357
5.0184031134216793 4.3458075323292418 7.6557132112278250
3.7639207126045129 6.5188567323325399 7.6784632622728273
2.5085618096020958 8.6921627105897592 7.7440406875324985
1.2547029185735783 10.8649988437471503 7.7167431075877948
10.0369070222400953 0.0003108402174399 7.6719158402543979
8.7822155514059368 2.1731520185129156 7.7056862535033916
7.5275973902708291 4.3458060009584925 7.7158925787269403
6.2731392386671612 6.5187628810975671 7.6638414829260180
5.0184360833431674 8.6916723086770613 7.6783034510356538
3.7635529626327298 10.8645359853458690 7.7020598455010738
5.0183798011682681 13.0374999394721218 7.6567645022237087
11.2916153728976916 2.1729999091945809 7.6821064653516009
10.0368146676956531 4.3458631554891021 7.7529993955201526
8.7822709196382860 6.5188958406337347 7.7142000771361046
7.5276575986746437 8.6918449330225354 7.6588199253813807
6.2726790175823410 10.8645086415045213 7.6719443447231912
2.5093381881850654 8.6916978732341850 1.0472804713431147
3.7031002872999763 8.0025023613549031 1.0346643089089449
