rBN 3-layer slab
1.0
15.0551462173000008 0.0000000000000000 0.0000000000000000
-7.5275736112000002 13.0376828894999992 0.0000000000000000
0.0000000000000000 0.0000169606000000 10.0278787613000002
B N C
107 107 2
Cartesian
1.2520329026885550 2.1688273848034774 1.0027511926566044
0.0020614489755274 4.3512640917168506 0.9940098718878415
-1.2501070838050228 6.5211251272245905 0.9999692187328894
-2.5036475655041763 8.6926111083360649 1.0085705038663353
-3.7644000473812396 10.8649127634301941 1.0017483468614343
-5.0178541282837728 13.0374365742516058 1.0015531072006034
3.7642711441037666 2.1696616204929851 1.0103235346790431
2.5023316167869418 4.3283862962074497 1.0027402422847840
1.2714761707474722 6.5226938016991776 0.9946469443843223
0.0036874808388139 8.7047374596876921 1.0008213341785361
-1.2611857432020173 10.8685328920697248 1.0012904128633711
5.0179229724235128 0.0004359972075606 1.0017926445578114
6.2753979965441298 2.1698335360393601 1.0006558212963363
5.0190551313533875 4.3426269902356918 1.0081717500815939
3.7430008415806313 6.4965303659738529 1.0022081674213004
1.2452474358767025 10.8550736270471209 1.0013787264842087
0.0020604005997780 13.0324377633600257 0.9942792680203196
8.7832504223361969 2.1712618405376052 0.9940609408219742
7.5266561269640535 4.3470784729468450 1.0002091205866237
6.2636163499956270 6.5242738589631841 1.0017771586746627
5.0272624480745964 8.7208780901433141 1.0032239504956042
3.7688814771130588 10.8481510208232574 1.0098441926997388
2.5094674700489512 13.0326131377774690 1.0032777943461537
11.2908218572983312 2.1716244796630795 1.0028089607883743
10.0372019583067313 4.3456485013631090 1.0015670364001339
8.7807347343505331 6.5191501652663844 1.0029101985427156
7.5307372871252740 8.6929199758678060 0.9952900278655865
6.2846941007195829 10.8794606859264444 1.0007867820278402
5.0147762149675064 13.0332011490779909 1.0096656964552810
13.7989624658151513 2.1738752156163454 1.0016708349086110
-2.5083692333584398 4.3469654927092938 1.0008383323956822
-3.7617963870619575 6.5187525122086267 1.0091946398841449
-5.0144766415034265 8.6913076739322079 1.0028258186964505
-6.2698673263880176 10.8660573978440134 0.9931574909463512
0.0023310330738038 0.0043762207998680 1.0002011815465148
0.0000109529095384 1.4486704957325054 4.3443881098914057
-1.2545585035693128 3.6214674249287429 4.3390161494138866
-2.5092966195240858 5.7942771211847228 4.3395890081372963
-3.7641463780363131 7.9673371977881846 4.3558706687242132
-5.0189218137902216 10.1403244763735731 4.3482238808407958
-6.2732904433430550 12.3133261498115232 4.3371877523073259
2.5090649978708170 1.4488606307564114 4.3505055035404379
1.2546508672638861 3.6216571511805729 4.3502327231139679
0.0001642662414135 5.7940717296683628 4.3325164163439398
-1.2545860812043601 7.9671647679807345 4.3386108565103756
-2.5094683553344699 10.1404617729124134 4.3493889534093153
-3.7641414388317544 12.3135308801700774 4.3436928222970970
5.0181955126012303 1.4491035887595347 4.3394743774135041
3.7638124728790614 3.6222572135638256 4.3552696125272847
2.5094771990337228 5.7949196304770458 4.3487414253041612
1.2557008283728619 7.9666025076417002 4.3385367942936535
0.0003284642731909 10.1402813506489604 4.3448744558392622
-1.2547635589297290 12.3136527456739575 4.3393710118021280
7.5274765487384094 1.4490293469581150 4.3323219751065265
6.2728473682955732 3.6222210137327759 4.3377265972577996
5.0182624840412924 5.7954119014609553 4.3480750588273462
3.7639891379536650 7.9672984065124695 4.3365301341237901
2.5104833744139960 10.1398506534217514 4.3514799742678338
1.2548723612567994 12.3135688297224917 4.3505335338167299
10.0369165146598647 1.4488297920979964 4.3483543099500581
8.7820263694915344 3.6218128761778545 4.3370955218426746
7.5271973400689181 5.7947871086116587 4.3439228383153861
6.2721563346037561 7.9672024543585049 4.3379674616972457
5.0181964207727479 10.1399570073534075 4.3394316598542542
3.7643207118715125 12.3134443298392817 4.3559403336204179
12.5461443347760664 1.4487073633240171 4.3493388090461185
11.2913274654921150 3.6215666977859327 4.3437299766045969
10.0364754520463517 5.7944767542142470 4.3506164890811263
8.7815404975510294 7.9673128585218116 4.3500836957917830
7.5269554699739416 10.1400988820235813 4.3319289477771772
6.2729846136988074 12.3133199685324257 4.3383451466369989
1.2544535241075203 0.7243472428544605 7.6871081615808823
0.0000982192153897 2.8972262219772915 7.6893827762895324
-1.2544867296346953 5.0699659731996967 7.6992946618477971
-2.5094354060624116 7.2429030738100009 7.6793249772221346
-3.7642821636541850 9.4160355079827678 7.6738799222555443
-5.0187558640714194 11.5890959926982227 7.6914540846447101
3.7636027479639607 0.7247138510886885 7.6825478574559671
2.5092460153913394 2.8976625774239722 7.6721615055285657
1.2551005795392904 5.0703921904609857 7.6946549862095743
0.0003997359733670 7.2426533855942061 7.7013927473963601
-1.2547470853708123 9.4158896349195533 7.6840734001105533
-2.5095084643009131 11.5892445948843950 7.6867279987225459
6.2728474365614248 0.7247344190546675 7.6995393246349533
5.0182680692292196 2.8979317217425455 7.6794721605551173
3.7640852823438746 5.0712034954645473 7.6732225724838061
2.5106991913453705 7.2437507979475679 7.6918110191740219
1.2558476403784571 9.4153518236767884 7.6845175179632532
0.0000443949567143 11.5891386714070528 7.6895443594598376
8.7822833956405191 0.7246367035078456 7.6935903629704896
7.5274343452839005 2.8977132073973935 7.7012012456471570
6.2726434579543664 5.0707510777416083 7.6845901405253771
5.0179857607392968 7.2434144129037490 7.6875259186902882
3.7640736369161854 9.4146971708643576 7.6825372271213297
2.5097312972637824 11.5890084372403095 7.6723674267107240
11.2915585268375338 0.7244294517826660 7.6738629775603799
10.0367694920752211 2.8975228833942612 7.6913608827101365
8.7818210830530905 5.0703701066647087 7.6872198240414393
7.5268832967870143 7.2430017335720027 7.6902640067878352
6.2723103540023546 9.4153348611623375 7.6989733769624138
5.0184138099092053 11.5886133917581553 7.6806140294574563
13.8005254354513696 0.7241582729704551 7.6842111961310229
12.5460170930030568 2.8972673404626277 7.6868722020672289
11.2912072257421379 5.0702087297903287 7.6826583241121282
10.0362371003556117 7.2430308460848742 7.6725984665569262
8.7815473011736351 9.4158077600190371 7.6940928572816443
7.5272734521558533 11.5887364932311048 7.7016847236015806
-0.0018702218528875 1.4497831675674104 1.0039516100608157
-1.2536037826798627 3.6250751785351469 0.9988521017752424
-2.5048928319518415 5.7968130230275365 1.0073256442835219
-3.7569399890298376 7.9677822454347114 1.0138277299263849
-5.0156214696621255 10.1404262324108601 0.9996544549743195
-6.2717884631113741 12.3149733189396606 0.9976314386117364
2.5084960690704765 1.4469490820150412 1.0104120874767257
1.2479866503600461 3.6144613082780306 1.0009146766394967
0.0077850429179043 5.8077574763511342 0.9942863611241298
-1.2416335427630083 7.9707741971460617 1.0068814588927819
-2.5088380638598480 10.1403337845970238 1.0088669251006419
-3.7628609173379211 12.3128499693858284 1.0042825824964057
5.0197423179549476 1.4463107141059108 1.0091151437920349
3.7624291678239490 3.6148714883583630 1.0141427456475631
2.4953355432726148 5.7704926352050361 1.0000996794471191
1.2828131242978500 8.0015503319264507 1.0006712043274144
-0.0059533646237194 10.1438878924364939 1.0034414224814712
-1.2543573999936020 12.3130699359609004 0.9994586499561514
7.5307669715961971 1.4425243193865080 0.9945354244979625
6.2749193374807071 3.6167498871249211 1.0067529257476966
5.0133944828427754 5.7859224064617445 1.0075051634721397
2.4938117762157943 10.0989670535810045 1.0084660457598833
1.2583096132585538 12.3004421100026651 1.0004739773878375
10.0369923315674932 1.4436784400683365 1.0012316146738942
8.7828843492791968 3.6202529007247199 0.9984090520996994
7.5244313026069083 5.7964203139829573 1.0040829512915337
6.2779270754581473 7.9761073429981471 1.0007932222029703
5.0321910895343862 10.1644428518064185 1.0090193288044413
3.7562208740780356 12.2999978911626950 1.0146986084779341
12.5434239348141094 1.4459864441222730 1.0098707010049826
11.2923047207965315 3.6209993642628540 1.0043689708169885
10.0383068121449828 5.7946501435497648 1.0096349324220204
8.7874045150333213 7.9682798399286305 1.0016218141824458
7.5327218782677159 10.1450513600630181 0.9945092795017633
6.2758083217476850 12.3227387569337044 1.0073772583851803
1.2545147305128750 0.7243472368649706 4.3463574241345295
-0.0001040450649622 2.8972802340428183 4.3470484608690310
-1.2546972500445606 5.0701240815304187 4.3329953400625874
-2.5091253203795700 7.2431467388675479 4.3470792533863598
-3.7637890391961237 9.4161419172174448 4.3592625324496277
-5.0184702298082167 11.5890673937587412 4.3444230744616492
3.7637329085518871 0.7243264838181696 4.3474772234509711
2.5090752908902987 2.8973056032787712 4.3612970746356616
1.2543126754549172 5.0701070263949815 4.3456851275448294
-0.0000748174647765 7.2430524768949942 4.3307708486266030
-1.2544825439331013 9.4161224141906352 4.3457949959054760
-2.5091903672035154 11.5890834075716498 4.3460365831467822
6.2729804862211180 0.7243231316010835 4.3332392138804803
5.0183555942755316 2.8973129179236867 4.3470669011363769
3.7636043854387626 5.0702940075758045 4.3591675389926845
2.5084844018928707 7.2427815448439627 4.3466417885030673
1.2547022637169916 9.4160490103656098 4.3442181252418264
0.0000619681025529 11.5890393361412389 4.3468700353504977
8.7821868910379823 0.7243159078835179 4.3451880355671166
7.5276022298885064 2.8972239751400042 4.3311230220675165
6.2729960189935490 5.0702508458601070 4.3461468866433330
5.0184673549573642 7.2431452409493353 4.3474519335380046
3.7637663521672691 9.4168430192055066 4.3485811372803740
2.5092430543070310 11.5891927863076898 4.3607995099645898
11.2914141975407620 0.7244977704586857 4.3594295325552102
10.0368208022198200 2.8972328306991058 4.3444908882335236
8.7822431383646435 5.0701516796082906 4.3464703333641221
7.5275547619708139 7.2432130364472176 4.3475407283158454
6.2728396797462800 9.4162720228951198 4.3328546880880312
5.0184081965978837 11.5893499435183145 4.3472903439287540
13.8005633647902890 0.7244663770837025 4.3462786615449254
12.5459622597316081 2.8973069563339156 4.3462144246833319
11.2914156752380404 5.0701384675723675 4.3475042604129541
10.0367908749823318 7.2431623280073953 4.3616509558250129
8.7820673190611700 9.4161584808120438 4.3455159069359883
7.5274892517492358 11.5891364386349682 4.3311678694401596
7.5274611216597549 13.0376341143949546 7.6971622112283899
-1.2546211195904591 2.1729323436169028 7.6895513630309908
12.5460107677184105 4.3459109760919361 7.6946893250543065
11.2913553005699558 6.5188318522160245 7.6737612618164563
10.0367153305387440 8.6917877738824370 7.6772099283532187
8.7820980235558270 10.8647614506447621 7.7055362824331501
2.5091462311258863 0.0000685821625695 7.6899037066353113
1.2545259582706412 2.1729827538875961 7.6823192363340498
0.0000588932523508 4.3459853616650630 7.7033571446889892
-1.2545698627215633 6.5187831907731502 7.7016150400436896
-2.5092241704051719 8.6917371058579356 7.6756275561282381
-3.7638132847615715 10.8647865040651332 7.6844326844981676
5.0183929380241112 0.0000555526355034 7.6947679872558519
3.7637303607726760 2.1730248580476323 7.6733527712781768
2.5091467346691809 4.3460771012839796 7.6770487312568791
1.2548228322607200 6.5191865256403414 7.7081150717434719
-0.0000390764611091 8.6916897483432702 7.6981842617487484
-1.2546258908765862 10.8646906037283628 7.6899670474282864
7.5276017692128843 0.0000017108923275 7.7037479256728583
6.2729826500024979 2.1729542667836181 7.7015456871568784
5.0183478271811408 4.3458876151918870 7.6748299283505679
3.7638551886351381 6.5188088708043832 7.6806102262881248
2.5087386427710672 8.6920901163540751 7.6838302320920864
1.2545830611808118 10.8647829162434721 7.6835735315832174
10.0367736979364164 0.0000868440478802 7.6771041771785882
8.7822091716736033 2.1730067924444936 7.7053001823439304
7.5275403253395821 4.3458717244841081 7.6965393785756016
6.2728476010397953 6.5188511919913763 7.6899506065080363
5.0185383504153265 8.6918551008691836 7.6901784750669737
3.7635952729115001 10.8645578050596594 7.6759279511291840
5.0182783628329544 13.0376286622239910 7.6758073901138903
11.2914053687918550 2.1730358837252051 7.6845633984519566
10.0368129823452961 4.3459314438177943 7.6898571371993336
8.7821070023431513 6.5187920035036049 7.6825539963044571
7.5275419391089260 8.6917636256596964 7.7029886902219094
6.2728320030582463 10.8646786905910915 7.7022855381083941
2.5093223713400068 8.6916795738115873 1.0049367279071479
3.7030106373228349 8.0025246468899400 1.0069684466856728
