rBN 3-layer slab
1.0
15.0551462173000008 0.0000000000000000 0.0000000000000000
-7.5275736112000002 13.0376828894999992 0.0000000000000000
0.0000000000000000 0.0000169606000000 10.0278787613000002
B N C
107 107 2
Cartesian
1.2519322202549541 2.1686827714187107 0.9995925044788713
0.0020817529912290 4.3512418293453559 1.0173191839919977
-1.2500489846153515 6.5211338194652599 1.0047260240201066
-2.5036024864211122 8.6926270060541668 0.9870157506036014
-3.7643959422247004 10.8649096917252237 1.0014081873214502
-5.0179349391990336 13.0372941558902156 1.0019100732676214
3.7641599070586076 2.1695468670242071 0.9844295789490592
2.5022747084162522 4.3283694893932161 0.9994993659969079
1.2715166641432709 6.5227237671309659 1.0173311143983628
0.0037032460010703 8.7046888542866405 1.0023048268663095
-1.2611798236754070 10.8685406214432128 1.0015273307993131
5.0179174551617800 0.0004352296357457 1.0013199305382772
6.2753192714191020 2.1697804087805093 1.0036164561652212
5.0189465397020845 4.3425615722609026 0.9886566203620004
3.7430419617165112 6.4966290655024803 1.0034337904073194
1.2452019633646134 10.8550657450711956 1.0011916202794677
0.0020521662480062 13.0324804192653989 1.0155981277016299
8.7832327285599021 2.1712634475785455 1.0166968474795333
7.5265537056970508 4.3469248818077313 1.0049068107158996
6.2635762913461628 6.5242045755881293 1.0020305296935976
5.0273228531887657 8.7209666954044724 1.0014024175116534
3.7688907444522428 10.8482099921218378 0.9869414724153782
2.5094497584751809 13.0326699918980182 0.9981174901841084
11.2908469740917070 2.1717336273676207 0.9994080288843652
10.0371891663698776 4.3456274646209874 1.0018768660661603
8.7806590988310429 6.5189834468939969 0.9995051780047447
7.5307360528776242 8.6927900121270287 1.0144216270829045
6.2847129027863238 10.8794025947572681 1.0034091246361894
5.0147506027207465 13.0332161518771894 0.9860131900000811
13.7989423737853052 2.1738434605523671 1.0018083792284673
-2.5082933979182047 4.3470430805308657 1.0033493618232556
-3.7617808252838238 6.5187389259905810 0.9864275408697053
-5.0144761446527566 8.6912125200069372 0.9992750808370502
-6.2699045287913622 10.8658987390084736 1.0187599090262101
0.0022601781556294 0.0042141346932675 1.0046991915513348
-0.0000500197531504 1.4485769487609859 4.3435743201752199
-1.2545718546502047 3.6213458626302892 4.3543340393084824
-2.5092847133745355 5.7943152652612557 4.3531474852021361
-3.7641972540021227 7.9673726198221066 4.3204855874130779
-5.0188657342606628 10.1403594217793618 4.3354841282192362
-6.2732119997933413 12.3133866186732543 4.3573764066685872
2.5090713896352481 1.4489566862762040 4.3307404804322536
1.2546343876817829 3.6215711751349740 4.3319452450382201
0.0002235290785781 5.7940083479596725 4.3676093542469241
-1.2546531860940755 7.9671226184746082 4.3560527810234939
-2.5095499342176253 10.1404070920467966 4.3342041004212648
-3.7640868488569397 12.3136262685689548 4.3446060287300377
5.0181958488240745 1.4491730712530593 4.3529849913947745
3.7637248598741220 3.6222846738677954 4.3201975226306404
2.5095114411100443 5.7949217134081143 4.3351893764490708
1.2557530905901177 7.9666572685926198 4.3581719541911799
0.0002587131490482 10.1401717978951904 4.3440880922538945
-1.2547737472650424 12.3135604788500679 4.3542422924168571
7.5275296645975791 1.4490108081163708 4.3675846576595534
6.2727786897948858 3.6221997376778949 4.3557810126770002
5.0181761226863122 5.7953564852463542 4.3327665373034980
3.7640664377068811 7.9674319406364971 4.3374750148614369
2.5105002217818182 10.1399232529050174 4.3322843332424945
1.2548629867373526 12.3134933812953538 4.3322062135579964
10.0369392285940293 1.4488601674955479 4.3356234174629238
8.7820867692103608 3.6218791485629742 4.3575820900241817
7.5271369510709372 5.7946939927153256 4.3430991311399811
6.2721492574394251 7.9671075677703378 4.3529816259508527
5.0181817975285590 10.1399922447703048 4.3538078215024107
3.7642306031272961 12.3134625663310935 4.3207575544340751
12.5460375480264421 1.4486352977043360 4.3336920500116358
11.2913674504803261 3.6216406932938963 4.3446465513872266
10.0364943780700493 5.7945652746374456 4.3305390795730734
8.7815485481676614 7.9672464211591887 4.3310657656184199
7.5270223668090930 10.1400478220098211 4.3668791966984548
6.2729132384591235 12.3132683051155833 4.3557203701513263
1.2545260100896309 0.7244799259225934 7.6865144074605274
0.0001449782485191 2.8974515477317717 7.6818189684533822
-1.2546433089636386 5.0700079790861183 7.6614591549976883
-2.5093934681213872 7.2429144743427036 7.7010405809217133
-3.7641719637456097 9.4160146498300161 7.7126758013127681
-5.0188471297919124 11.5889881670487718 7.6776129032525642
3.7635457459282908 0.7245881898874349 7.6954249073348802
2.5093548253482520 2.8977095206494639 7.7164470426738410
1.2549393673884630 5.0704238536307678 7.6738644893320389
0.0002721339503189 7.2427560176093486 7.6578393478445523
-1.2545884173774355 9.4161047108413545 7.6924396045409518
-2.5095129268103444 11.5892371683254165 7.6867002001837950
6.2727674661690740 0.7248159164762125 7.6613593568778988
5.0183645573293587 2.8979763392280318 7.7017264294077981
3.7641453740645203 5.0711761822843346 7.7121546179418230
2.5104903646184358 7.2435580492602076 7.6774191592147716
1.2558981744749624 9.4154343256525053 7.6839194949720273
0.0001560779425651 11.5893788780595841 7.6814954144171104
8.7822668862189026 0.7246819183742043 7.6725087034613537
7.5274179426125363 2.8978324744691202 7.6582998024448310
6.2728408025022002 5.0709688027332120 7.6932924382783101
5.0179612964952423 7.2433672225054080 7.6875540213101354
3.7640128598782492 9.4144240415966625 7.6959652337356053
2.5098864268469216 11.5889506889511349 7.7158886727339393
11.2916680073206184 0.7243212049324960 7.7123259350022675
10.0366565965291628 2.8973521444194801 7.6777988222766869
8.7818819689875109 5.0704796441141129 7.6865731276646851
7.5269745097475163 7.2432801342111262 7.6819500944006958
6.2722518918853565 9.4153720040333031 7.6606611128655349
5.0185214184326048 11.5884952503790863 7.7019580215141668
13.8006944787199046 0.7243135917135280 7.6921655538520604
12.5459741192516976 2.8971958844065249 7.6868765686268468
11.2911074638608611 5.0700271905670560 7.6952043056768797
10.0363448610219859 7.2430828888570273 7.7155035971244610
8.7815305364494094 9.4159174700705854 7.6724880812846861
7.5272488200465544 11.5888578865207226 7.6574041028664368
-0.0019548460451627 1.4496327493551486 1.0049190793831282
-1.2535452173098145 3.6251237197674033 1.0150859338177731
-2.5047226573514716 5.7968165358004837 0.9977501299197062
-3.7568674332956049 7.9677651924583035 0.9846037347281998
-5.0157150072357526 10.1404077816221250 1.0133136460246361
-6.2718987913975903 12.3147430404505940 1.0173771273087313
2.5083569126797718 1.4467353004072665 0.9918166926837801
1.2478575758886763 3.6144400237536689 1.0107144762197697
0.0078261840551711 5.8077685686305838 1.0246626210943794
-1.2414847987766178 7.9707050700659394 0.9974697161041983
-2.5087927589700034 10.1403934549881249 0.9945557010278775
-3.7628753215279582 12.3128274235447481 1.0039965222818668
5.0197756869467236 1.4462132988336092 0.9943934589551243
3.7623222404342882 3.6147821651462251 0.9842916889412501
2.4952742669580181 5.7705948735880384 1.0130080372103865
1.2828178886295227 8.0015071763891026 1.0127885577852729
-0.0059837319125717 10.1438286495910912 1.0044197883224675
-1.2543301231870363 12.3131377009613860 1.0133709775761770
7.5307192684103930 1.4425746393911649 1.0231933256828414
6.2748975944221863 3.6166001691480623 0.9991520701560711
5.0133801769395241 5.7859380956445321 0.9972897684682737
2.4937735106600880 10.0989602537942602 0.9972029153280100
1.2581786830924020 12.3005365932502322 1.0102860842817201
10.0369110474821213 1.4438300522680287 1.0099391595911482
8.7828165841333998 3.6201607273940701 1.0158032989566299
7.5243386161120025 5.7962515456386789 1.0050190897907634
6.2779448269892191 7.9761026739918321 1.0107163483158059
5.0323097142494984 10.1644441313180369 0.9951688696250572
3.7562158543738593 12.3000485481975286 0.9838428006211906
12.5434336505311013 1.4460687111551611 0.9930382771312566
11.2923554004365680 3.6210945980053446 1.0039933287319929
10.0382652031244657 5.7945430878893776 0.9933516793679008
8.7872906341429822 7.9681833682197878 1.0094161583538355
7.5327049449544079 10.1449136784707736 1.0235597311650069
6.2758593765750970 12.3226178095131207 0.9977947012478454
1.2545471364396499 0.7244115956307008 4.3461368348483873
-0.0001222855550929 2.8971581679219551 4.3450116736211655
-1.2547307882992944 5.0700798819808242 4.3727683123399892
-2.5091982626565503 7.2431694068298329 4.3441875865624882
-3.7637792434703585 9.4161035180830570 4.3203252443383366
-5.0183772134778888 11.5891318130557526 4.3499440284224775
3.7637422670636460 0.7244400175193419 4.3438360650805459
2.5090883149889498 2.8973125596428631 4.3159188704066160
1.2543845336210084 5.0700316878818761 4.3480362569021835
-0.0000920531340458 7.2430636119694691 4.3756425297137298
-1.2545787554015944 9.4160532748153010 4.3465500377999851
-2.5092177367779862 11.5890396231996071 4.3464033495015650
6.2729393274751271 0.7243179986908193 4.3723754744482690
5.0182615007044902 2.8973566465296869 4.3446425313569454
3.7635694730901408 5.0702476073901988 4.3198222853188399
2.5085883405504008 7.2428446855730106 4.3504941821673988
1.2547035267283497 9.4160532437738169 4.3440034957588738
0.0000434760140990 11.5889282594533967 4.3444012823677838
8.7822385049345773 0.7242686641080318 4.3479703060004633
7.5275834097543033 2.8972729962738053 4.3767155708306094
6.2728918550766251 5.0701994172504410 4.3473513907829178
5.0184337685840541 7.2430895864180798 4.3478556453100383
3.7637706378964988 9.4169631358527059 4.3466125215312541
2.5092570188991656 11.5891841438121048 4.3155832102986480
11.2913855423775988 0.7244462491587540 4.3199005057298780
10.0368874797448040 2.8972847112667059 4.3499627111079384
8.7822742510889658 5.0702145076982958 4.3462301271685009
7.5275550938039339 7.2431049011129547 4.3445632373112266
6.2728157465827934 9.4162263870067129 4.3724475063418238
5.0183029366067116 11.5893763583807541 4.3448244443497606
13.8004553202560132 0.7243931741555434 4.3465514513785353
12.5459142210185082 2.8972304223194065 4.3465672127756694
11.2914243939844940 5.0702248950933475 4.3439323951271378
10.0368359473127384 7.2431750113770965 4.3156568680734608
8.7821476232253186 9.4161045065805791 4.3477441536289234
7.5274881763880686 11.5891591446420126 4.3761780793858351
7.5275505567945844 13.0378149802931489 7.6746411986606624
-1.2545581180890915 2.1730413586557575 7.6897888495809630
12.5458679473755002 4.3458025895873806 7.6793913913297116
11.2913344696031217 6.5187909675751250 7.7209639642065548
10.0368050131931827 8.6918194737562615 7.7141081896025305
8.7820746934303919 10.8647792064487358 7.6571688413060839
2.5091092509254036 0.0000168540280974 7.6889446117675808
1.2546298474462891 2.1731541129645562 7.7043261418276678
-0.0000176985064689 4.3460643759614701 7.6625112738023953
-1.2546913371054360 6.5188360080882504 7.6652371229565945
-2.5091309905652999 8.6918191928344797 7.7182914939409324
-3.7638166909346706 10.8646975555186298 7.6998146251394211
5.0183114284245685 0.0000091170136053 7.6791454882964016
3.7637482369850765 2.1730289685945774 7.7215325660434901
2.5091984129161680 4.3460771951091139 7.7152609343546876
1.2545915028956058 6.5190864270385971 7.6596717614534144
-0.0000264169433567 8.6918580084907031 7.6759841248864067
-1.2545184703388270 10.8648705874411888 7.6901405551509638
7.5276237031052560 0.0001184049296504 7.6620502723941115
6.2729580938860527 2.1730477195371276 7.6654391814409673
5.0184311604817537 4.3460006454991218 7.7175639010086279
3.7638109344302220 6.5186441208712669 7.6948671045148611
2.5087099784449394 8.6920356132391650 7.6829162325803662
1.2547260079644365 10.8648744417427405 7.7052014542039027
10.0368765759160130 0.0000091423249396 7.7142583462465559
8.7821783719268982 2.1729719265341991 7.6578864430998488
7.5276288635709498 4.3460633530345074 7.6752731772702116
6.2729573724161680 6.5190349353200130 7.6901974377832900
5.0184207163943455 8.6917299544542939 7.6757329419544194
3.7636309895097906 10.8643156210906255 7.7240485046449008
5.0183827902100280 13.0376077885691668 7.7176177927251270
11.2913794903254292 2.1728619060530616 7.6996437126299897
10.0367469085519883 4.3458277109622250 7.6888332815437135
8.7822250185522073 6.5189667785915155 7.7032427716785579
7.5275947057498627 8.6918897911724837 7.6612566510780908
6.2728029973958144 10.8647262123961479 7.6647927323578262
2.5093622344422108 8.6917516586408023 1.0052131238095965
3.7030570439153281 8.0026110834531856 1.0068553786396148
