rBN 3-layer slab
1.0
15.0551462173000008 0.0000000000000000 0.0000000000000000
-7.5275736112000002 13.0376828894999992 0.0000000000000000
0.0000000000000000 0.0000169606000000 10.0278787613000002
B N C
107 107 2
Cartesian
1.2518986594437538 2.1686345669571216 0.9985396084196269
0.0020885209964629 4.3512344085548573 1.0250889546933830
-1.2500296182187947 6.5211367168788161 1.0063116257825122
-2.5035874600600909 8.6926323052935359 0.9798308328493568
-3.7643945738391875 10.8649086678235651 1.0012948008081222
-5.0179618761707871 13.0372466831030849 1.0020290619566274
3.7641228280435546 2.1695086158679477 0.9757982603723980
2.5022557389593558 4.3283638871218049 0.9984190739009492
1.2715301619418704 6.5227337556082290 1.0248925044030428
0.0037085010551557 8.7046726524862894 1.0027993244289006
-1.2611778504998703 10.8685431979010421 1.0016063034446272
5.0179156160745357 0.0004349737784741 1.0011623591984327
6.2752930297107596 2.1697626996942252 1.0046033344548495
5.0189103424849844 4.3425397662693070 0.9821515771221359
3.7430556684284713 6.4966619653453561 1.0038423314026590
1.2451868058605837 10.8550631177458872 1.0011292515445540
0.0020494214640822 13.0324946379005233 1.0227044142620667
8.7832268306344705 2.1712639832588585 1.0242421496987195
7.5265195652747163 4.3468736847613609 1.0064727074256583
6.2635629384630072 6.5241814811297774 1.0021149866999093
5.0273429882268221 8.7209962304915258 1.0007952398503364
3.7688938335653042 10.8482296492213646 0.9793072323205914
2.5094438546172579 13.0326889432715340 0.9963973887967600
11.2908553463561656 2.1717700099358010 0.9982743849163621
10.0371849023909245 4.3456204523736135 1.0019801426215025
8.7806338869912128 6.5189278741032011 0.9983701711587544
7.5307356414617406 8.6927466908801030 1.0207988268220105
6.2847191701419041 10.8793832310342076 1.0042832388389724
5.0147420653051595 13.0332211528102562 0.9781290211816811
13.7989356764420226 2.1738328755310410 1.0018542273350861
-2.5082681194381262 4.3470689431380567 1.0041863716324468
-3.7617756380244458 6.5187343972512322 0.9788385078648920
-5.0144759790358675 8.6911808020318464 0.9980915015505835
-6.2699169295924770 10.8658458527299597 1.0272940483861630
0.0022365598495712 0.0041601059910673 1.0061985282196082
-0.0000703439740467 1.4485457664371459 4.3433030569364917
-1.2545763050105021 3.6213053418641379 4.3594400026066813
-2.5092807446580188 5.7943279799534331 4.3576669775570824
-3.7642142126573925 7.9673844271667473 4.3086905603093664
-5.0188470410841433 10.1403710702479586 4.3312375440120494
-6.2731858519434365 12.3134067749604981 4.3641059581223409
2.5090735202233918 1.4489887047828016 4.3241521393961913
1.2546288944877486 3.6215425164531077 4.3258494190129708
0.0002432833576330 5.7939872207234426 4.3793070002145855
-1.2546755543906474 7.9671085686392331 4.3618667558612003
-2.5095771271786766 10.1403888650915928 4.3291424827585816
-3.7640686521986679 12.3136580647019134 4.3449104308743509
5.0181959608983560 1.4491962320842342 4.3574885293885322
3.7636956555391423 3.6222938273024519 4.3085068259984256
2.5095228551354847 5.7949224077184702 4.3306720268307064
1.2557705113292030 7.9666755222429266 4.3647170074903556
0.0002354627743340 10.1401352803106004 4.3438259710587719
-1.2547771433768136 12.3135297232421053 4.3591993859551001
7.5275473698839681 1.4490046285024560 4.3793388851772290
6.2727557969613237 3.6221926456596014 4.3617991511500671
5.0181473355679858 5.7953380131748196 4.3276636967955486
3.7640922042912863 7.9674764520111729 4.3377899751073183
2.5105058375710922 10.1399474527327733 4.3258857862340481
1.2548598618975373 12.3134682318196411 4.3260971068050855
10.0369467999054169 1.4488702926280650 4.3313797866338790
8.7821069024499696 3.6219012393580141 4.3644109460846838
7.5271168214049426 5.7946629540832149 4.3428245620815131
6.2721468983846478 7.9670759389076151 4.3579863473687217
5.0181769231138302 10.1400039905759378 4.3585998753851296
3.7642005668792238 12.3134686451616968 4.3090299613719605
12.5460019524432358 1.4486112758311089 4.3284764636668083
11.2913807788097298 3.6216653584632175 4.3449520763147689
10.0365006867446152 5.7945947814451788 4.3238466097370560
8.7815512317065370 7.9672242753716480 4.3247264555606320
7.5270446657541443 10.1400308020052350 4.3785292796722137
6.2728894467125613 12.3132510839766365 4.3615121113227691
1.2545501720836678 0.7245241536119710 7.6863164894204088
0.0001605645928955 2.8975266563165980 7.6792976991746658
-1.2546955020732862 5.0700219810482592 7.6488473193809856
-2.5093794888077126 7.2429182745202709 7.7082791154882395
-3.7641352304427511 9.4160076971124322 7.7256077609985097
-5.0188775516987443 11.5889522251656221 7.6729991761218486
3.7635267452497341 0.7245463028203504 7.6997172572945178
2.5093910953338892 2.8977251683912946 7.7312088883889336
1.2548856300048539 5.0704344080206951 7.6669343237061929
0.0002295999426362 7.2427902282810628 7.6433215479939500
-1.2545355280463100 9.4161764028152888 7.6952283393510843
-2.5095144143134882 11.5892346928057588 7.6866909340042113
6.2727408093716246 0.7248430822833941 7.6486327009588804
5.0183967200294051 2.8979912117231938 7.7091445190253580
3.7641654046380690 5.0711670778909301 7.7251319664278295
2.5104207557094576 7.2434937996977542 7.6726218725616873
1.2559150191737976 9.4154618263110770 7.6837201539749520
0.0001933056045154 11.5894589469437594 7.6788124327362004
8.7822613830783638 0.7246969899963237 7.6654814836249754
7.5274124750554146 2.8978722301596958 7.6439993213773887
6.2729065840181448 5.0710413777304133 7.6961932041959535
5.0179531417472241 7.2433514923726277 7.6875633888500836
3.7639926008656039 9.4143329985074313 7.7004412359403638
2.5099381367079685 11.5889314395214100 7.7303957547416777
11.2917045008149799 0.7242851226491061 7.7251469208162300
10.0366189646804784 2.8972952314278864 7.6732781354655373
8.7819022642989850 5.0705161565972476 7.6863575622057674
7.5270049140676845 7.2433729344241673 7.6791787902716493
6.2722324045130247 9.4153843849902916 7.6478903581665749
5.0185572879404043 11.5884558699193967 7.7090726855330711
13.8007508264760830 0.7243653646278857 7.6948170064257395
12.5459597946679118 2.8971720657211573 7.6868780241467194
11.2910742099004349 5.0699666774926317 7.6993862995317972
10.0363807812441106 7.2431002364477450 7.7298053073136392
8.7815249482080002 9.4159540400877688 7.6652864892857009
7.5272406093434547 11.5888983509505952 7.6426438959547225
-0.0019830541092544 1.4495826099510614 1.0052415691572323
-1.2535256955197982 3.6251399001781555 1.0204972111652835
-2.5046659324846816 5.7968177067247995 0.9945582917984344
-3.7568432480508607 7.9677595081328345 0.9748624029954714
-5.0157461864269619 10.1404016313592127 1.0178667097080751
-6.2719355674929966 12.3146662809542384 1.0239590235410629
2.5083105272162034 1.4466640398713415 0.9856182277527983
1.2478145510648861 3.6144329289122150 1.0139810760798607
0.0078398977675933 5.8077722660570670 1.0347880410844625
-1.2414352174478209 7.9706820277058990 0.9943324685080038
-2.5087776573400551 10.1404133451184926 0.9897852930036226
-3.7628801229246371 12.3128199082643874 1.0039011688770205
5.0197868099439820 1.4461808270761753 0.9894862306761542
3.7622865979710678 3.6147523907421792 0.9743413367058124
2.4952538415198191 5.7706289530490391 1.0173108231314756
1.2828194767400802 8.0014927912099871 1.0168276756045591
-0.0059938543421891 10.1438089019759570 1.0047459102694662
-1.2543210309181811 12.3131602892948795 1.0180084201161854
7.5307033673484582 1.4425914127260506 1.0327459594111343
6.2748903467360124 3.6165502631557760 0.9966184516255293
5.0133754083051061 5.7859433253721280 0.9938846368003182
2.4937607554748524 10.0989579871986805 0.9934485385173855
1.2581350397036848 12.3005680876660897 1.0135567865796808
10.0368839527869991 1.4438805896679261 1.0128416745635660
8.7827939957514669 3.6201300029505203 1.0216013812422735
7.5243077206137006 5.7961952895239186 1.0053311359571733
6.2779507441662430 7.9761011176563947 1.0140240570200845
5.0323492558212024 10.1644445578219091 0.9905520498985959
3.7562141811391339 12.3000654338758064 0.9735575313356093
12.5434368891034325 1.4460961334994571 0.9874274691733479
11.2923722936499153 3.6211263425861753 1.0038681147036610
10.0382513334509600 5.7945074026692485 0.9879239283498609
8.7872526738462042 7.9681512109835069 1.0120142730776323
7.5326993005166383 10.1448677846066921 1.0332432150527548
6.2758763948509007 12.3225774937062589 0.9946005155354004
1.2545579384152414 0.7244330485526108 4.3460633050863402
-0.0001283657184698 2.8971174792150007 4.3443327445385433
-1.2547419677175391 5.0700651487976263 4.3860259697657895
-2.5092225767488769 7.2431769628172615 4.3432236976211973
-3.7637759782284363 9.4160907183715938 4.3073461483012387
-5.0183462080344459 11.5891532861547581 4.3517843464094206
3.7637453865675656 0.7244778620863994 4.3426223456237372
2.5090926563551670 2.8973148784308935 4.3007928023302675
1.2544084863430389 5.0700065750441743 4.3488199666879686
-0.0000977983571356 7.2430673236609611 4.3905997567427724
-1.2546108258910920 9.4160302283568562 4.3468017184314878
-2.5092268599694760 11.5890250284089262 4.3465256049531593
6.2729256078931304 0.7243162877207312 4.3854208946375319
5.0182301361808097 2.8973712227316870 4.3438344080971349
3.7635578356406003 5.0702321406616635 4.3067072007608909
2.5086229867695780 7.2428657324826924 4.3517783133888424
1.2547039477321356 9.4160546549098854 4.3439319525978899
0.0000373119846144 11.5888912338907826 4.3435783647068789
8.7822557095667761 0.7242529161828697 4.3488977294782458
7.5275771363762356 2.8972893366517392 4.3919130870849736
6.2728571337709829 5.0701822743805520 4.3477528921627790
5.0184225731262844 7.2430710349076621 4.3479902159007162
3.7637720664729089 9.4170031747351057 4.3459563162815478
2.5092616737632101 11.5891812629802438 4.3005111104100004
11.2913759906565438 0.7244290753921101 4.3067241634547671
10.0369097055864653 2.8973020047892395 4.3517866520660764
8.7822846219970732 5.0702354503949634 4.3461500584366268
7.5275552044149743 7.2430688560015337 4.3435707403096879
6.2728077688616315 9.4162111750439088 4.3856451124264213
5.0182678499429878 11.5893851633349012 4.3440024778234294
13.8004193054112552 0.7243687731794903 4.3466423813230719
12.5458982081141421 2.8972049109812370 4.3466848088064483
11.2914273002333125 5.0702537042670075 4.3427417733651987
10.0368509714228740 7.2431792391669969 4.3003255054896101
8.7821743912800354 9.4160865151700914 4.3484869025265684
7.5274878179343458 11.5891667133110268 4.3911814827010600
7.5275803685061939 13.0378752689258803 7.6671341944714202
-1.2545371175886355 2.1730776970020425 7.6898680117642870
12.5458203405945294 4.3457664607525288 7.6742920800881800
11.2913275259475103 6.5187773393614918 7.7366981983365877
10.0368349074113290 8.6918300403808697 7.7264076100189678
8.7820669167219130 10.8647851250500604 7.6410463609303942
2.5090969241919092 -0.0000003886833933 7.6886249134783364
1.2546644771715052 2.1732112326568762 7.7116617769922069
-0.0000432290927421 4.3460907140602734 7.6488959835068631
-1.2547318285667268 6.5188536138599504 7.6531111505942295
-2.5090999306186759 8.6918465551599926 7.7325128065451638
-3.7638178263257038 10.8646679060031293 7.7049419386865052
5.0182842585580545 -0.0000063615270273 7.6739379886432513
3.7637541957225435 2.1730303387768926 7.7375924976319288
2.5092156389984974 4.3460772263841587 7.7279983353872908
1.2545143931072344 6.5190530608380159 7.6435239913567283
-0.0000221971041060 8.6919140952065135 7.6685840792656261
-1.2544826634929074 10.8649305820121302 7.6901983910585221
7.5276310144027141 0.0001573029420913 7.6481510546345302
6.2729499085139047 2.1730788704549640 7.6534036795356633
5.0184589382486244 4.3460383222681997 7.7318085585613154
3.7637961830285831 6.5185892042268945 7.6996193972571065
2.5087004236695636 8.6920174455341943 7.6826115660764591
1.2547736568923114 10.8649049502424973 7.7124107617441311
10.0369108685758803 -0.0000167582493740 7.7266430692692118
8.7821681053446614 2.1729603045641008 7.6420818633518213
7.5276583763147391 4.3461272292179736 7.6681844435017492
6.2729939628749589 6.5190961830962255 7.6902797148750413
5.0183815050540188 8.6916882389826622 7.6709177642502349
3.7636428950425542 10.8642348931009476 7.7400886891501397
5.0184175993357192 13.0376008306842248 7.7315545935955390
11.2913708641699539 2.1728039134956805 7.7046704840226665
10.0367248839542196 4.3457931333437028 7.6884919963251743
8.7822643572885575 6.5190250369541527 7.7101390301365917
7.5276122946301740 8.6919318463434134 7.6473459713634844
6.2727933288416713 10.8647420529978334 7.6522951304409705
2.5093755221429457 8.6917756869172074 1.0053052557770794
3.7030725127794923 8.0026398956409341 1.0068176892909289
