rBN 3-layer slab
1.0
15.0551462173000008 0.0000000000000000 0.0000000000000000
-7.5275736112000002 13.0376828894999992 0.0000000000000000
0.0000000000000000 0.0000169606000000 10.0278787613000002
B N C
107 107 2
Cartesian
1.2519651834927508 2.1688872445717724 1.0059793005601632
0.0020153149316261 4.3513045238263235 1.0123459164814976
-1.2501588165904491 6.5211134890233229 1.0010893799891600
-2.5036693692011496 8.6926760703750237 1.0126108728705814
-3.7644604070119847 10.8649864762736392 0.9949835922025138
-5.0179718585713058 13.0374425317265086 0.9767578287566062
3.7641809225259384 2.1697113060121773 0.9941363054570151
2.5023104164024366 4.3284964817680063 1.0049216726846995
1.2714793107542484 6.5226777820347825 0.9918409951222390
0.0036536282111905 8.7047367869692742 1.0030335203445386
-1.2612173031886309 10.8685541380576023 1.0177607799638690
5.0178245524613949 0.0004500501462772 0.9950280702736267
6.2752485450731079 2.1697760760140921 1.0078810228287631
5.0189759274663217 4.3426555908760989 1.0129060922924056
3.7429879864347471 6.4966302578849113 0.9936097042207406
1.2451977443463884 10.8550960671978185 1.0027409921170423
0.0019845862381455 13.0324528397817030 1.0118600446470285
8.7831457676956912 2.1712265307562388 0.9945857871154267
7.5265605006364797 4.3469715862535843 1.0066128136735764
6.2636056465747743 6.5242492562640892 1.0140276545792750
5.0272115346669288 8.7208906730471227 0.9936618294279355
3.7689024722484228 10.8481876014975072 0.9923493614036960
2.5094345634837594 13.0326963032674943 1.0007674880600248
11.2907674170207351 2.1717051456155967 0.9958851458506334
10.0371422563223547 4.3456716838452651 0.9809806177934292
8.7807309069833437 6.5191807022856363 1.0063388392725281
7.5306722245867324 8.6928888581082013 1.0121829979188424
6.2846007002238720 10.8793809696670323 1.0052622797787836
5.0146997130540765 13.0332216515840731 1.0131065960537402
13.7988976396623215 2.1738947290418138 1.0212198436575928
-2.5084174117700995 4.3470156950331935 0.9959300342382046
-3.7618085798002703 6.5188475816713254 0.9950964980950735
-5.0145027637678243 8.6914049444505057 1.0075454815882143
-6.2699824275044813 10.8660086964846609 0.9936146000737320
0.0021976015884608 0.0042981872636461 1.0062696694455520
0.0000583181120150 1.4485964013840615 4.2979553431771249
-1.2544403986246444 3.6214012218443998 4.3549382569634929
-2.5093624881995247 5.7942248562232503 4.3673322850407512
-3.7643177006386801 7.9672991873488259 4.3669920211335587
-5.0189040885752423 10.1404523937532574 4.3671639173407648
-6.2732424975652590 12.3134317880774695 4.3103132334930612
2.5090046336669549 1.4488310891987322 4.3098414856189775
1.2546222282264374 3.6217103373189392 4.3437695341395512
0.0001723699268656 5.7942316270808218 4.3680115675936904
-1.2546822909201927 7.9671474273728240 4.3448288702822486
-2.5094470191725025 10.1403785761561931 4.3553162605491131
-3.7640577950584886 12.3135300992105954 4.3444851368138693
5.0180980000079876 1.4490768856532934 4.3668543519038705
3.7636521318949399 3.6222241233428076 4.3655625392916404
2.5095032253093619 5.7950762604479280 4.3681773882225698
1.2557231662308763 7.9667556847893595 4.3119484142132203
0.0003605980746175 10.1402091229684341 4.2978815238469306
-1.2546850487146528 12.3136147342485724 4.3557628245564723
7.5274610680560050 1.4491855834446030 4.3679469813470115
6.2727666667892521 3.6222020331548936 4.3428741585841673
5.0183142881278728 5.7953174219283188 4.3536131721558071
3.7641445435131859 7.9672687066128356 4.3391923257045502
2.5103698749090082 10.1398008117523091 4.3114376326843846
1.2548303073206846 12.3136061952379912 4.3450728367024682
10.0369405382262293 1.4489354367447855 4.3676393209262301
8.7820964181382948 3.6219075153080222 4.3099983745686101
7.5272728121853083 5.7947064065700031 4.2966174660590690
6.2722621614019305 7.9671439637614698 4.3540345293869951
5.0180591714923795 10.1398810121744880 4.3678407430890287
3.7641184320504721 12.3133715732211275 4.3670386028409425
12.5461874083343492 1.4485910943888090 4.3544698104691646
11.2914527548058974 3.6215289677317788 4.3438239018271689
10.0364491466953911 5.7944328961771641 4.3094897665114855
8.7815288486556558 7.9673517182781808 4.3431227280075300
7.5269500434194132 10.1402185384750219 4.3664681031512789
6.2728700549419649 12.3132804135867744 4.3434695199880284
1.2545804383878520 0.7243370798856605 7.7428159815170963
0.0001191751874649 2.8971799729012990 7.6858855047422994
-1.2543997521241403 5.0699098376668923 7.6583687463537604
-2.5091667380933314 7.2429083562659082 7.6646210151994714
-3.7641993485546292 9.4158952149534496 7.6583078614106759
-5.0187409538898446 11.5889144897320122 7.7087834356779625
3.7637331718543336 0.7247129533230234 7.7088363255509238
2.5094796470810068 2.8975335632943988 7.6934333311639662
1.2551195089137033 5.0700971555927836 7.6669437394445330
0.0004662377893402 7.2425784502818678 7.6935369908523956
-1.2547461114239320 9.4160326211154839 7.6882466855767415
-2.5096022326339762 11.5892990740475863 7.6755428830807224
6.2729586334560077 0.7247931379288723 7.6580002595073289
5.0186075063035460 2.8980262809845407 7.6636534058314707
3.7641472749793343 5.0711442139379681 7.6595195334758479
2.5105209207193551 7.2437034863715049 7.7094747131455064
1.2557958897456196 9.4154257754887691 7.7400091630419912
-0.0000017835923236 11.5892333145772088 7.6884465738308743
8.7824062557114324 0.7244302277439658 7.6647543911411082
7.5276301400705199 2.8977238173112072 7.6916417735579792
6.2727037603323561 5.0709445784846894 7.6863771166123440
5.0177835088017391 7.2435134945958506 7.6765441972895800
3.7639916640636799 9.4146990113234548 7.7095436111107594
2.5099427260355056 11.5889554742499961 7.6941170592446326
11.2917364162780434 0.7243103781053121 7.6586746255993026
10.0367741488490889 2.8973526574204653 7.7096875315307081
8.7818596867389278 5.0703926340696412 7.7431106412804320
7.5268081424020714 7.2430420415062491 7.6865647082583086
6.2723608234527051 9.4153419152289661 7.6592097871575398
5.0187630186495040 11.5886707054398528 7.6668337176405847
13.8006994167261219 0.7242739847209506 7.6857031625880001
12.5459669315590467 2.8972673398959916 7.6740445264141099
11.2912865178804847 5.0701637868956508 7.7097534411615980
10.0363989347100677 7.2428865845986978 7.6922014901193823
8.7816321283115535 9.4155415873123101 7.6637885940476158
7.5274983015740959 11.5886840427574374 7.6928899918305325
-0.0020260816406488 1.4498061881205400 1.0220508289077916
-1.2536358089687558 3.6251473422646447 1.0190763400493392
-2.5048315958274809 5.7968614088217603 0.9959317237309104
-3.7569362069077648 7.9679201926095624 1.0104965652063360
-5.0156940676037252 10.1404507377039845 0.9981577623243973
-6.2719471358569248 12.3148434272777170 0.9860076423126659
2.5084360008751614 1.4470110981339819 0.9861656934686859
1.2479107598806454 3.6146388437814814 1.0158309934992469
0.0077211096608864 5.8077441014007380 1.0035737716923667
-1.2417097497604002 7.9707154907485345 1.0106389597167593
-2.5089048997551084 10.1403901651604134 1.0178598825449028
-3.7628810566401283 12.3128509480808859 0.9796323109853993
5.0197082991989381 1.4462989519279004 0.9987253304690870
3.7623831273634352 3.6149652194703585 1.0090455416852628
2.4953074586399433 5.7705274846748269 0.9960477661719491
1.2828903527020825 8.0015163717612410 0.9885220224679666
-0.0060674275010689 10.1439263215226401 1.0177778496820469
-1.2544228463440954 12.3131448512632371 1.0173931112337298
7.5306140014354206 1.4424863556229057 1.0099250935408781
6.2747572712715467 3.6166510716703026 1.0180844093829180
5.0133689624064290 5.7859356919890761 1.0125795131718480
2.4938518935612835 10.0989063391845821 0.9886523636447280
1.2582293760047973 12.3005978991044369 1.0098192376801454
10.0369208453401235 1.4436973240532767 0.9953828095984600
8.7827670090888628 3.6201200203507642 0.9900633625648956
7.5243576357551163 5.7963930027661252 1.0175996784254950
6.2779155929027235 7.9761182806375883 1.0121843714382497
5.0322283090594828 10.1644437762611854 0.9965881002754465
3.7561943842420225 12.3000856792207198 1.0041538504905818
12.5433509786352833 1.4460245424135010 1.0195175677433883
11.2923381742049624 3.6210172196973671 0.9834639394733102
10.0383346670359330 5.7947450794386004 0.9902181673436221
8.7873338202686373 7.9684103071859962 1.0172515856917448
7.5326054781789402 10.1449534482951886 1.0084769070563233
6.2756511765666572 12.3226301551167428 1.0166878024891191
1.2545711969817568 0.7243417687135401 4.2763316252044614
-0.0000319571575776 2.8972323044799890 4.3248262532972612
-1.2546974043936301 5.0701594656444460 4.3818092782874611
-2.5092547806141301 7.2430965880686822 4.3748811632108806
-3.7638384457680334 9.4161372328695219 4.3815428892849875
-5.0184120576648352 11.5891807298348670 4.3398697881474622
3.7636735293021268 0.7243008050498766 4.3393858718850531
2.5090066576083290 2.8972626265063939 4.3385740231655534
1.2543632403966158 5.0702496402294992 4.3749526567842176
-0.0000701176673716 7.2431700444226381 4.3400781755910538
-1.2544817619255784 9.4160625974751966 4.3242700842458701
-2.5091712367288403 11.5890551205993582 4.3600084554519265
6.2729362822580059 0.7243658289588851 4.3822067317196680
5.0182142890201291 2.8972799557602347 4.3735453652366205
3.7635706940915692 5.0703118280494257 4.3808796529313261
2.5085331253943814 7.2429614850004551 4.3435353133207739
1.2547415598838285 9.4160241050832933 4.2721918688842822
0.0001015788696257 11.5889894677483110 4.3246953990276298
8.7821964709020985 0.7244183418934917 4.3758118548681040
7.5276276290291113 2.8973373985565511 4.3397843033796741
6.2730261939784144 5.0701942668485831 4.3238410042785569
5.0184771251133897 7.2431175760248596 4.3618828202537712
3.7636335049938037 9.4167930455488413 4.3430361161669069
2.5091457557377934 11.5891225667114313 4.3393138195452368
11.2913591365052088 0.7244486723971759 4.3811165509778540
10.0369043481100935 2.8973140911421389 4.3396164004789721
8.7823301180856372 5.0701333059359639 4.2755453323152510
7.5276253881096151 7.2431486135806367 4.3242512773754838
6.2727925006462533 9.4162625503740358 4.3814909518590728
5.0182302796697469 11.5892521685294607 4.3740167202382860
13.8005676674356952 0.7243769653410670 4.3243618191680024
12.5460124502141728 2.8972441284203652 4.3593129493253828
11.2913966489384894 5.0700836890710246 4.3391155727984829
10.0367393609281308 7.2430960953201309 4.3390385722351796
8.7820837095136834 9.4162645801682121 4.3744757346215115
7.5274896148516941 11.5892299058429753 4.3392466587570864
7.5276726774296918 13.0377053365556446 7.7269188318350004
-1.2545485980253066 2.1729437780552829 7.6800048882012213
12.5459998077707642 4.3458639837744375 7.6785307576516759
11.2914821547424697 6.5187618658815678 7.6935572898562663
10.0368271628886916 8.6915460839052514 7.6610041800760857
8.7822157233983216 10.8645987054260083 7.6925365218869297
2.5091798374562591 0.0000293789890151 7.7513951660940910
1.2546433326809043 2.1728854749106516 7.7273667499790832
0.0001061776362141 4.3457726841437214 7.6587972626880410
-1.2544137153826962 6.5187548378666484 7.6625492294860740
-2.5090678484137920 8.6917640906752816 7.6594376571438589
-3.7638173060897007 10.8646924479869309 7.6787472231050762
5.0184188730525490 0.0000807116360770 7.6785929068863226
3.7639446998268102 2.1730113156355522 7.6928118729022588
2.5092762793436698 4.3458604410517649 7.6645030727993708
1.2547328807251064 6.5189301991266424 7.6971530417985887
-0.0000726698188888 8.6917630607378715 7.7296448226799992
-1.2546250436990176 10.8647741464175898 7.6844112364638137
7.5276727396448058 -0.0000652233368806 7.6594621519820416
6.2732295921619832 2.1730450315136443 7.6603889941436210
5.0185510380970815 4.3460060289736759 7.6579804133897440
3.7636727924870574 6.5188491529579986 7.6765555358932014
2.5083834072874436 8.6922791250350908 7.7418795838357211
1.2546059177009572 10.8648461383969419 7.7301253183575165
10.0369554894000874 -0.0000820407363408 7.6631710250631082
8.7823134552372810 2.1729049741891391 7.6932629563046842
7.5276597394371549 4.3460064544041961 7.7260220676358760
6.2727889694729715 6.5189691879475387 7.6815608241280549
5.0183364948897884 8.6919144126624577 7.6763914697771130
3.7638061473166351 10.8646072073465607 7.6974695435628204
5.0185680214875781 13.0376837328211508 7.6587914329600304
11.2914301566220665 2.1729510042387186 7.6786730872830908
10.0367805926641367 4.3458960458680878 7.7526332833135720
8.7821295957575352 6.5187334246953288 7.7264783028509161
7.5275819019531678 8.6916167363569681 7.6579935712700600
6.2730748513446271 10.8647134005792481 7.6638999725628727
2.5093517368373384 8.6916927498721428 0.9855356146969139
3.7030342470827100 8.0025463731344768 0.9856537048605601
