rBN 3-layer slab
1.0
15.0551462173000008 0.0000000000000000 0.0000000000000000
-7.5275736112000002 13.0376828894999992 0.0000000000000000
0.0000000000000000 0.0000169606000000 10.0278787613000002
B N C
107 107 2
Cartesian
1.2519879557491533 2.1688152017518498 1.0031252979182943
0.0020505829643829 4.3512726218930089 1.0053017338866506
-1.2501114171357934 6.5211231794332054 1.0013996736599167
-2.5036448158291531 8.6926362951752960 1.0051273483649208
-3.7644192550011462 10.8649366517769046 0.9994178376329088
-5.0179113296941198 13.0374069115518196 0.9933673401786084
3.7642163509011217 2.1696526815618764 0.9991735792205929
2.5023119036875090 4.3284192898800278 1.0027471910207832
1.2714862159487972 6.5226951207958876 0.9987525546334146
0.0036796999989964 8.7047264342479860 1.0018883946089310
-1.2611949477471973 10.8685416917042375 1.0068331836604132
5.0178889397113107 0.0004405109489517 0.9994327389031866
6.2753306849148940 2.1698025766400817 1.0037221406668975
5.0190045985796319 4.3426219864547635 1.0054131686586214
3.7430056943399768 6.4965855965061232 0.9996143736846735
1.2452207670305779 10.8550793555471472 1.0017912358718775
0.0020332992899512 13.0324522679240005 1.0048770512695138
8.7832116055057412 2.1712504277306919 0.9992660910659159
7.5266014912399726 4.3470087126848442 1.0033876160887805
6.2636038802665732 6.5242502617579179 1.0059169619804078
5.0272589002974115 8.7209019745026186 0.9996317916988366
3.7688905349002209 10.8481763191143585 0.9989230888712000
2.5094525652886048 13.0326534938564880 1.0012942913258784
11.2908092920487721 2.1716756233593721 0.9997452598304587
10.0371792149926389 4.3456515540255785 0.9947737479014604
8.7807166506682499 6.5191232957456045 1.0032964075553261
7.5307153253351711 8.6928807224499867 1.0051724843760759
6.2846671454580658 10.8794212046912673 1.0028613574133434
5.0147450227193051 13.0332113172020634 1.0055565504425008
13.7989363922020196 2.1738746634106176 1.0082177365626841
-2.5083684405089408 4.3469994685553877 0.9997602395493171
-3.7617969931351429 6.5187811828699607 0.9994359039512457
-5.0144852385136325 8.6913189521215806 1.0036099868027273
-6.2699139606275818 10.8660059065385539 0.9989992868954468
0.0022708103746507 0.0043141904863272 1.0032235686250428
0.0000131918297664 1.4486250094004642 4.3287296788274929
-1.2545221021612882 3.6214183433898608 4.3477274941292210
-2.5093159299382211 5.7942681759923502 4.3518497620084124
-3.7642147913406152 7.9673323992048255 4.3517144347915204
-5.0189034432675488 10.1403748811458652 4.3517061702026609
-6.2732570295171861 12.3133748000916672 4.3327159470050738
2.5090462968616256 1.4488721292415834 4.3325586035425765
1.2546376587887136 3.6216557741054509 4.3440144427723295
0.0001801369892675 5.7941109439816962 4.3521465640722976
-1.2546330633073521 7.9671496212211812 4.3445595109928039
-2.5094793719211821 10.1404218893568689 4.3479903106807924
-3.7641014264684847 12.3135518172722218 4.3441598618988966
5.0181630831196706 1.4491101282782375 4.3516033942394641
3.7637395563277010 3.6222522857799238 4.3509067903605931
2.5094934838092295 5.7949723033409102 4.3522085131980548
1.2557198881515903 7.9666657357911248 4.3340373697996259
0.0003236752905236 10.1402329296990583 4.3290353977117366
-1.2547396529325510 12.3136195714601868 4.3481396784124051
7.5274831920352012 1.4490773060443345 4.3520331288651386
6.2728052059044250 3.6222099588612862 4.3434545433486331
5.0182605606579349 5.7953680935690537 4.3465192029315336
3.7640581175297756 7.9673181807957087 4.3376275048146313
2.5104492851051829 10.1398501727504406 4.3338668290677198
1.2548562600515507 12.3135645185771825 4.3446405636100351
10.0369295700562446 1.4488717570686043 4.3519535597227526
8.7820631412001937 3.6218591497512702 4.3326157101249878
7.5272090776637191 5.7947395155096997 4.3279713348576347
6.2721900374999624 7.9671618715843451 4.3466596318724084
5.0181474214028050 10.1399395061641897 4.3520960568543252
3.7642332610991174 12.3134241301869665 4.3518213613191827
12.5461349622400213 1.4486525924301297 4.3475720852905821
11.2913781141496443 3.6215705645474290 4.3439649682971497
10.0364708893790748 5.7944818060737084 4.3324459350005675
8.7815384036118225 7.9673110479155742 4.3435371664918403
7.5269685270857991 10.1401274208376702 4.3512087215510507
6.2729305662821524 12.3132953027912446 4.3439144318683036
1.2545119368636555 0.7243733403244456 7.7055454895328745
0.0001155954356657 2.8972608780085118 7.6865361729213104
-1.2544925325376088 5.0699565959968558 7.6772447996053161
-2.5093365305302684 7.2429073680803482 7.6792493462589313
-3.7642300697524274 9.4159841084946052 7.6773105417644159
-5.0187711752821151 11.5890115304540533 7.6941547169019842
3.7636335554750473 0.7246856271220771 7.6941722467940448
2.5093480726116537 2.8976300045420014 7.6890933445504270
1.2550710644083554 5.0703008817648696 7.6807977935373302
0.0003935472402363 7.2426512142712358 7.6890956286479701
-1.2547115011677685 9.4159850916341536 7.6873236518060377
-2.5095407120806965 11.5892611042590197 7.6829934493888823
6.2728667309946520 0.7247721025508569 7.6772085323130659
5.0184026567206930 2.8979731564866520 7.6791446353922748
3.7641193002713935 5.0711776653600849 7.6773064584718238
2.5105933618640464 7.2436921943805777 7.6945007260624614
1.2558416199667346 9.4153948080531631 7.7028818389914493
0.0000538205483352 11.5892235983865568 7.6873897764629104
8.7823206802371310 0.7245779260012987 7.6792935591364433
7.5274959651746922 2.8977432478290486 7.6884811009058032
6.2727074130909930 5.0708639613207698 7.6871196431661293
5.0179129069280988 7.2434369533792626 7.6838715899166852
3.7640328066235869 9.4146370889579032 7.6945233565876450
2.5098362467617212 11.5889779499570551 7.6892886922271861
11.2916421523139441 0.7243657057012880 7.6773475174493289
10.0367459564340535 2.8974281994086000 7.6944559744428940
8.7818474811560190 5.0704019574551094 7.7057063861484920
7.5268785148721449 7.2430770363587786 7.6871833711919617
6.2723141855709166 9.4153454664892067 7.6772050105614822
5.0185541258278379 11.5886062426789280 7.6807637015311014
13.8006209943804059 0.7242313588301921 7.6864761533324684
12.5459908227991956 2.8972514611501707 7.6825972805294374
11.2912114871479687 5.0701534067758196 7.6944780256985634
10.0363149919551802 7.2429943239832939 7.6886672812038634
8.7815718513920018 9.4157434157949176 7.6791903748709771
7.5273429281598681 11.5887459860264634 7.6889130084034214
-0.0019409804915357 1.4497574148157288 1.0101996761925438
-1.2536014435828164 3.6251100200521478 1.0092010327649481
-2.5048346033325282 5.7968299322418213 1.0013997786851367
-3.7569226048259838 7.9678244382760157 1.0062231205312164
-5.0156664551034646 10.1404303006666261 1.0021909332133048
-6.2718658714234943 12.3148788487214418 0.9981447706669340
2.5084451226963260 1.4469222470307381 0.9981976461867246
1.2479326703177192 3.6145157568848783 1.0080645154994741
0.0077728743071798 5.8077554829853240 1.0041324446402642
-1.2416258908762743 7.9707392667735260 1.0060424607699781
-2.5088502747383026 10.1403658382050654 1.0086843055658923
-3.7628708313697761 12.3128452854306065 0.9960022563895060
5.0197383937011164 1.4462851455416181 1.0023803871650721
3.7623900593616306 3.6148828824596642 1.0058101095031713
2.4953125647695917 5.7705269713356335 1.0016175656361219
1.2828399258396326 8.0015294217519699 0.9993142222537893
-0.0059981338692476 10.1438875370551198 1.0084376461796623
-1.2543731539311964 12.3131099666173434 1.0085284320753498
7.5307053808346485 1.4425228470218978 1.0060337366644629
6.2748604836202047 3.6166836779785241 1.0088410079390759
5.0133827969410483 5.7859303214559192 1.0069265255934057
2.4938166452074668 10.0989453043851434 0.9993585671810818
1.2582537719148235 12.3005150359804922 1.0057695323505806
10.0369504396949534 1.4437184263299148 1.0012170229636947
8.7828301769611308 3.6201881243043683 0.9994925437785271
7.5243861499907760 5.7963737061675067 1.0087965577804607
6.2779271927243556 7.9761099513210016 1.0067954110842492
5.0322298570905541 10.1644434442939229 1.0017977061438021
3.7562109286428811 12.3000384109675558 1.0043268429584291
12.5434017751360543 1.4460174251155462 1.0093457846125120
11.2923271340749061 3.6210264791282452 0.9973171510168745
10.0383068506596285 5.7946579986992903 0.9995441767171944
8.7873556432472402 7.9683018908568988 1.0085638145014097
7.5326793152796112 10.1449881268976867 1.0056208112784486
6.2757672855378779 12.3226756791234759 1.0083513159448634
1.2545407539862299 0.7243597160957671 4.3229664713164757
-0.0000840692047519 2.8972371317172390 4.3391884389566933
-1.2547047544397469 5.0701260541129622 4.3581050910880785
-2.5091846831859743 7.2431350592595454 4.3557039640336725
-3.7638033312254793 9.4161318226271611 4.3580365873700160
-5.0184301687981279 11.5891194878501196 4.3441321910148822
3.7637151951379133 0.7243431539401102 4.3439709599577929
2.5090553073737869 2.8972928235466657 4.3436386787613932
1.2543454989168370 5.0701378224480198 4.3559634438151491
-0.0000770810143680 7.2430941405318698 4.3438447756341150
-1.2545036635902587 9.4160871109798592 4.3387878124399428
-2.5091900725062839 11.5890642487204314 4.3507753775495601
6.2729566051787495 0.7243362234069587 4.3582586666197178
5.0182875828412774 2.8973116480038694 4.3553543069965848
3.7635853966900044 5.0702896365813217 4.3576615206002662
2.5085237405394922 7.2428555561692489 4.3464623842565988
1.2547156431084612 9.4160416493622172 4.3201616776819893
0.0000710623385874 11.5889980296351869 4.3389298781356054
8.7822015540808209 0.7243395539367344 4.3560142576526344
7.5276065140166626 2.8972726765308092 4.3441417933411453
6.2729829297847433 5.0702205576096731 4.3389792601083155
5.0184631480375259 7.2431236516342308 4.3523519428370454
3.7637230221603875 9.4168530539082180 4.3462953267427471
2.5092137246933151 11.5891674592210290 4.3435895465657071
11.2913894760482076 0.7244699552604198 4.3578743105126838
10.0368634680776854 2.8972714465284723 4.3440820196207648
8.7822790455437136 5.0701595168486273 4.3227752871932488
7.5275783777577745 7.2431675320840769 4.3391159133346981
6.2728186348988295 9.4162587240795563 4.3578651800681101
5.0183254998460223 11.5893232218247952 4.3556511583477109
13.8005407891089185 0.7244203058521220 4.3390336673823091
12.5459683146228862 2.8972690061372859 4.3506589969178684
11.2914112706374024 5.0701394141876932 4.3439142833668374
10.0367837197043546 7.2431430689715741 4.3438925862391677
8.7820906279151529 9.4161818529904409 4.3556643487629261
7.5274891338142398 11.5891726401503128 4.3438630680892851
7.5275515147241405 13.0376980475370061 7.7020764153044317
-1.2545829454017710 2.1729603806605526 7.6864219795432840
12.5459753765485473 4.3458712260962020 7.6859035950924088
11.2913929561903856 6.5187994379621168 7.6908494272497485
10.0367725374674901 8.6917142549731139 7.6800076258717995
8.7821320723643392 10.8647111479727272 7.6904547086672839
2.5091492154136810 0.0000440192970575 7.7101877275954092
1.2545881695575396 2.1729884073568280 7.7022254976587536
0.0000576343227898 4.3459320278904841 7.6794269904916526
-1.2545448079161348 6.5187854769854496 7.6805091216162413
-2.5091513564436294 8.6917643423473940 7.6797117982029324
-3.7638153821316367 10.8647353856953988 7.6859557397318596
5.0183834697892475 0.0000536199419395 7.6859046273639082
3.7638057796156987 2.1730212573651491 7.6905457595451630
2.5092014002822300 4.3460049020566043 7.6813584457927782
1.2547414418899345 6.5190788393353873 7.6936958816973871
-0.0000474610208685 8.6917515769520115 7.7037377516453116
-1.2546017372534501 10.8647584476720667 7.6881536677118349
7.5276303002218299 0.0000053314908854 7.6797198559361979
6.2730595071408946 2.1730052889721843 7.6798031215489235
5.0184340826643679 4.3459522042985350 7.6787098617320844
3.7637845556513518 6.5187856870926737 7.6824268579846473
2.5086138610929423 8.6921410074444339 7.7029769050040269
1.2546224459727768 10.8648243292944660 7.7038969988681361
10.0368571568642171 0.0000132820702642 7.6807162751551985
8.7822370884733392 2.1729651050459764 7.6907513871654967
7.5275998052012989 4.3459592185797815 7.7016411190833844
6.2728524508233816 6.5189313558275721 7.6872088637758766
5.0184449243465963 8.6918470611525223 7.6823726881675638
3.7636735014017209 10.8645204538288418 7.6938019382772218
5.0183981218016234 13.0376423804997490 7.6794266049762117
11.2914078806316081 2.1729689288581220 7.6859511423241198
10.0367875027197311 4.3458965927555431 7.7105549957583861
8.7821407593055145 6.5188113161426040 7.7017929374586327
7.5275669859772147 8.6917426993394074 7.6787165307615552
6.2729065067842775 10.8647008209882667 7.6811586149819835
2.5093410183062739 8.6916999846827085 0.9985311114820585
3.7030288198189028 8.0025510970966174 0.9998384065115112
