rBN 3-layer slab
1.0
15.0551462173000008 0.0000000000000000 0.0000000000000000
-7.5275736112000002 13.0376828894999992 0.0000000000000000
0.0000000000000000 0.0000169606000000 10.0278787613000002
B N C
107 107 2
Cartesian
1.2520221141337573 2.1687071375219658 0.9988442939554911
0.0021034850135181 4.3512247689930375 0.9947354599943798
-1.2500403179538102 6.5211377150480292 1.0018651141660517
-2.5036079857711586 8.6925766323757045 0.9939020616064301
-3.7643575269848881 10.8648619150318027 1.0060692057785012
-5.0178205363783404 13.0373534812897862 1.0182816073116117
3.7642694934638969 2.1695647448864248 1.0067294898659596
2.5023141346151179 4.3283035020480600 0.9994854685249092
1.2714965737406205 6.5227211289375457 1.0091198939001782
0.0037188076807053 8.7047109051660527 1.0001707060055196
-1.2611614145850469 10.8685230221741893 0.9904417892052292
5.0179855205861843 0.0004262021529635 1.0060397418475266
6.2754538946775735 2.1698423275790661 0.9974838174240990
5.0190476052495967 4.3425715798227600 0.9941737832079451
3.7430322561978211 6.4965186044379406 1.0086213778805728
1.2452553010568623 10.8550542880711411 1.0003666015041301
0.0021063688676598 13.0324514101374493 0.9944025612032416
8.7833103622208153 2.1712862731923717 1.0062865469916498
7.5266629771452118 4.3470644023317337 0.9985498197115864
6.2636012308042703 6.5242517699986609 0.9937509230821072
5.0273299487431355 8.7209189266858633 1.0085867351051883
3.7688726288779182 10.8481593955396356 1.0087836800724559
2.5094795679958732 13.0325892797399785 1.0020844962246589
11.2908721045908269 2.1716313399750353 1.0055354308001967
10.0372346529980625 4.3456213592960484 1.0154634430635072
8.7806952661956092 6.5190371859355567 0.9987327599795234
7.5307799764578292 8.6928685189626673 0.9946567140619260
6.2847668133093570 10.8794815572276207 0.9992599738651831
5.0148129872171481 13.0331958156290479 0.9942314820256418
13.7989945210115668 2.1738445649638232 0.9887145759203211
-2.5082949836172026 4.3469751288386789 1.0055055475159860
-3.7617796131374521 6.5186815846679123 1.0059450127355039
-5.0144589506323447 8.6911899636281920 0.9977067446244967
-6.2698112603122329 10.8660017216193925 1.0070763171280188
0.0023806235539355 0.0043381953203490 0.9986544173942791
-0.0000544975936065 1.4486679214250682 4.3748911823030463
-1.2546446574662540 3.6214440257080525 4.3369113498778136
-2.5092460925462654 5.7943331556460000 4.3286259774599030
-3.7640604273935185 7.9673822169888249 4.3287980552784644
-5.0189024753060085 10.1402586122347795 4.3285195494955051
-6.2732788274450773 12.3132893181129646 4.3663200172730923
2.5091087916536310 1.4489336893058602 4.3666342804279763
1.2546608046321279 3.6215739292852178 4.3443818057214969
0.0001917875828702 5.7939299193330074 4.3283490587902085
-1.2545592218880917 7.9671529119937166 4.3441554720586373
-2.5095279010442013 10.1404868591578854 4.3370013858783114
-3.7641668735834788 12.3135843943646623 4.3436719495264375
5.0182607077871948 1.4491599922156537 4.3287269577428544
3.7638706929768428 3.6222945294355982 4.3289231669640236
2.5094788715590308 5.7948163676803839 4.3282552006612827
1.2557149710326612 7.9665308122937724 4.3671708031792349
0.0002682911143827 10.1402686397949946 4.3757662085089457
-1.2548215592593983 12.3136268272776110 4.3367049591963038
7.5275163780039955 1.4489148899439317 4.3281623501423292
6.2728630145771840 3.6222218474208749 4.3443251204953324
5.0181799694530280 5.7954441010301574 4.3358782490951233
3.7639284785546598 7.9673923920700185 4.3352802734797535
2.5105684003994448 10.1399242142476389 4.3675106236427226
1.2548951891478499 12.3135020035859704 4.3439921539713859
10.0369131178012676 1.4487762375543320 4.3284249179175358
8.7820132257930421 3.6217866014161424 4.3665417134595543
7.5271134758813352 5.7947891789192445 4.3750021380554838
6.2720818516470107 7.9671887333186575 4.3355972856005280
5.0182797962684447 10.1400272471487423 4.3284790275022695
3.7644055046720859 12.3135029656357222 4.3289954990365436
12.5460562930985304 1.4487448394921107 4.3372254975227085
11.2912661531652656 3.6216329597709040 4.3441765680021209
10.0365035034046031 5.7945551709185246 4.3668801877341918
8.7815527360460752 7.9672500423716643 4.3441588242183053
7.5269962525853780 10.1399907443816435 4.3283196491507070
6.2730213332924336 12.3133176365979473 4.3445817996887168
1.2544091845773606 0.7244277309826231 7.6496397515565420
0.0001102258079671 2.8973822356693311 7.6875121751898270
-1.2546317031578116 5.0700267334918010 7.7055588794826511
-2.5095912191856740 7.2429058858020081 7.7011918428481207
-3.7642761515491245 9.4161174488063395 7.7058145622950258
-5.0188165073705209 11.5891570915371140 7.6722116387380161
3.7634841309061171 0.7246446378206577 7.6721761286587258
2.5091507109076239 2.8977746664134054 7.6825833646301183
1.2549983976503334 5.0706064710229990 7.7015788746765264
0.0002845114165805 7.2427603602552892 7.6824335853413324
-1.2546595857835232 9.4159137974121574 7.6859391011499820
-2.5094484312507772 11.5892041495761688 7.6941692988511221
6.2727288773026189 0.7247405494838337 7.7060209415216718
5.0180953823464129 2.8978934697398189 7.7023814797334813
3.7640773382094825 5.0712278424932586 7.7039868459657876
2.5107020235810835 7.2436752563941873 7.6720397454378935
1.2559102152984072 9.4153483568997540 7.6471908529156352
0.0001372267593233 11.5892090241005778 7.6858045804109647
8.7821923170256788 0.7247994733872980 7.7011023111294463
7.5272947028309511 2.8977723936058100 7.6837400919275387
6.2727128922289479 5.0707430355748899 7.6882334329968067
5.0181070041176383 7.2433221415543807 7.6948626788573415
3.7640945204634471 9.4145442054095732 7.6719929748029738
2.5096765278510444 11.5890116635176437 7.6820461417010160
11.2915007563677978 0.7244486970952519 7.7053568552243688
10.0367036678114996 2.8975415123908022 7.6716086388111728
8.7818291727816558 5.0704159425333115 7.6496000034505807
7.5269840735772551 7.2431295286375743 7.6881113655924418
6.2722442287482334 9.4153507933795666 7.7041978456673963
5.0182407865953387 11.5885095485375409 7.7016586773668765
13.8005033608618319 0.7241674199940541 7.6876356394491703
12.5460266596594199 2.8972276430314392 7.6954264117024289
11.2910989410491975 5.0701378365960732 7.6715649025040111
10.0361890778228489 7.2431559330601880 7.6833659678305857
8.7814814360126743 9.4160461585188280 7.7022930461060195
7.5271098680385258 11.5888389009300035 7.6829475332627553
-0.0018133287678662 1.4496842548585118 0.9924229471196719
-1.2535498955039073 3.6250540367334017 0.9943880718383616
-2.5048391145900988 5.7967827173719142 1.0096018611164763
-3.7569022017033125 7.9676808067756957 0.9998129535185368
-5.0156250363530743 10.1403996451105893 1.0082406895466658
-6.2717439747733490 12.3149319808870299 1.0163504631983362
2.5084588054280728 1.4467889703758725 1.0162455752637825
1.2479655359733299 3.6143311265399736 0.9964147984998148
0.0078505212766199 5.8077725553622033 1.0049704540621105
-1.2415001025500856 7.9707749308110127 0.9991477123498060
-2.5087683372130938 10.1403293477720435 0.9949209400973767
-3.7628554934642477 12.3128367914551884 1.0205571744956663
5.0197835354543843 1.4462644359621948 1.0078629722090500
3.7624004573589245 3.6147593769436233 1.0009569612300340
2.4953202239640642 5.7705262013268435 1.0099722648323810
1.2827642855459576 8.0015489967380660 1.0155025219325233
-0.0058941934215155 10.1438293603538394 0.9944273409260853
-1.2542986153118478 12.3130576396485019 0.9952314133377800
7.5308424499334903 1.4425775841203858 1.0001967013498405
6.2750153021431911 3.6167325874408562 0.9949759057733126
5.0134035487429776 5.7859222656561835 0.9984470442257419
2.4937637726767421 10.0990037521859843 1.0154178724856127
1.2582903657798628 12.3003907412945779 0.9996949743562334
10.0369948312271990 1.4437500797448719 1.0099683430115469
8.7829249287695319 3.6202902802347738 1.0136363155989745
7.5244289213442661 5.7963447612695793 0.9955918768129093
6.2779445924568034 7.9760974573461221 0.9987119705532483
5.0322321791371616 10.1644429463430281 1.0096121149463357
3.7562357452441684 12.2999675085878089 1.0045863316602002
12.5434779698872116 1.4460067491686142 0.9940881099161976
11.2923105738798188 3.6210403682745622 1.0180969683322210
10.0382651260951743 5.7945273775903257 1.0135331907775529
8.7873883777151445 7.9681392663632522 0.9955321577159074
7.5327900709306164 10.1450401448014347 1.0013366676116362
6.2759414489947094 12.3227439651335757 0.9958465861284796
1.2544950894929396 0.7243866371691077 4.3929187404844967
-0.0001622372755135 2.8972443725731138 4.3607317174458409
-1.2547157795089221 5.0700759368157380 4.3225488102890051
-2.5090795370437413 7.2431927660458397 4.3269381652678609
-3.7637506594116479 9.4161237072636208 4.3227771344975592
-5.0184573354980664 11.5890276248729975 4.3505257953160124
3.7637776938915932 0.7244066772754606 4.3508485920669022
2.5091282820219738 2.8973381191070735 4.3512356621551529
1.2543188866971688 5.0699700957758003 4.3274796243615459
-0.0000875260348627 7.2429802846957179 4.3494946756987067
-1.2545365160872792 9.4161238812368531 4.3605644047310514
-2.5092183261724492 11.5890779409020439 4.3369257606960101
6.2729870895598649 0.7242918150790690 4.3223365689697930
5.0183975235729994 2.8973591863693215 4.3280677196365307
3.7636074505876573 5.0702563493791644 4.3228343221036765
2.5085096632571582 7.2426966629224392 4.3508529906603357
1.2546767679454103 9.4160679657806021 4.3921163908785488
0.0000252875420300 11.5890108724655008 4.3602815967975683
8.7822091788489036 0.7242213720015985 4.3263178618294296
7.5275748414979899 2.8971755934921957 4.3506780282833519
6.2729180334942365 5.0702599937513080 4.3616866438529529
5.0184421824237315 7.2431327650482888 4.3380556267119568
3.7638572979102629 9.4169430664472831 4.3511841426065079
2.5093156781265975 11.5892347979854264 4.3500031370964125
11.2914349853627058 0.7245018795552857 4.3230109498149289
10.0368021480290732 2.8972074796079728 4.3507804483334542
8.7822024367308256 5.0701988332176224 4.3936202195102458
7.5275078622300136 7.2431959098392360 4.3614128672735202
6.2728578362776943 9.4162529846378380 4.3224265223816660
5.0184683301104354 11.5894298017677961 4.3281028155118477
13.8005004716187560 0.7244853166187045 4.3610414397037687
12.5459021112359554 2.8973063227126667 4.3376780683065963
11.2914332031857718 5.0702230018626961 4.3511123492193695
10.0368502578686911 7.2432135294487390 4.3511736072451503
8.7821010055173563 9.4160577622237849 4.3274472699750479
7.5274884122580596 11.5890867416113199 4.3507876820875833
7.5273697706658131 13.0376871140090458 7.6648127905085799
-1.2546344664664675 2.1729852845684574 7.6960476165563776
12.5459387297152229 4.3458820895788488 7.6969628512535069
11.2912591583622604 6.5188557960829403 7.6867876333399705
10.0366905993356887 8.6919665115749076 7.7085127945653689
8.7820065958133657 10.8648798117928056 7.6873319888378155
2.5091032823498138 0.0000659797591212 7.6483765698473860
1.2545054248724925 2.1731428060260924 7.6645136191782592
-0.0000151806473468 4.3461710435106280 7.7103715821970695
-1.2547414467162927 6.5188314356636514 7.7074489598114919
-2.5092766184883848 8.6917647198555628 7.7101230097915430
-3.7638124961945407 10.8647997922581006 7.6967685146720362
5.0183303648942958 0.0000129824007332 7.6968722080802872
3.7635973992990315 2.1730361699595444 7.6871465895095188
2.5090890816900702 4.3462215935638637 7.7066415052828896
1.2547542836371768 6.5193017996485052 7.6885101415455841
-0.0000096478238379 8.6917343512732188 7.6648771450932802
-1.2545667775850990 10.8647348995537811 7.6937673145838668
7.5275666410873647 0.0001111637325345 7.7101064118674323
6.2728043796092612 2.1729456751599945 7.7089243126568769
5.0182586495152979 4.3458714672858241 7.7098040342455949
3.7639522003977937 6.5186904882946850 7.6912338411218162
2.5089595418011901 8.6919338310584475 7.6446228867564852
1.2546472383805063 10.8647916156407529 7.6645545196340654
10.0367096580604116 0.0001562662801716 7.7070341502933353
8.7821225383274264 2.1730553013312326 7.6869840334567154
7.5275099038475162 4.3458883648431597 7.6650696962546467
6.2729476728489963 6.5188746076476223 7.6956809232476093
5.0186075685318068 8.6917460338876182 7.6913445157532401
3.7634745325293495 10.8643903235522625 7.6883005303488243
5.0181432722726909 13.0375803520176472 7.7103793630004835
11.2913744666459230 2.1729958157872278 7.6968682248856632
10.0367978678031200 4.3458974130867265 7.6474375644256085
8.7821575046274827 6.5189281533135173 7.6647648893702076
7.5275446120132852 8.6919316438130654 7.7098009699987982
6.2726539899437528 10.8646819516017956 7.7070465786106492
2.5093249405096771 8.6917108368985598 1.0180243566597755
3.7030206789231919 8.0025581830398291 1.0211154589879379
