rBN 3-layer slab
1.0
15.0551462173000008 0.0000000000000000 0.0000000000000000
-7.5275736112000002 13.0376828894999992 0.0000000000000000
0.0000000000000000 0.0000169606000000 10.0278787613000002
B N C
107 107 2
Cartesian
1.2520913232759545 2.1688440729868113 1.0143790633696175
0.0021085408298458 4.3513347388019872 1.0368226153927653
-1.2502094317837991 6.5211949936295461 1.0445780556455091
-2.5037450727594051 8.6927256432089202 1.0323213812376217
-3.7644285435497653 10.8649973353456168 1.0093011743146780
-5.0178231685850498 13.0374445789955349 0.9988656508495463
3.7644227181164993 2.1696949037692899 1.0036503123321714
2.5025035339382691 4.3285803170444783 1.0298506385261847
1.2715958986171512 6.5229459573582584 1.0376871101576040
0.0037150321011712 8.7048494610408476 1.0232006335604666
-1.2611304628437159 10.8685756656403800 1.0006403628489011
5.0180354925045974 0.0004284485501260 0.9886601587861835
6.2756069285756011 2.1697915461146708 0.9802431279730203
5.0192931167284440 4.3428008785396299 1.0058898061705182
3.7432569860801275 6.4968770869582642 1.0193418504765972
1.2453837159680790 10.8551306788753923 0.9831298637737205
0.0022299939146432 13.0323807481011880 0.9695298484219412
8.7834215881885047 2.1712035218894039 0.9696600399746234
7.5268006194101646 4.3471544317231849 0.9911704732257119
6.2637918295004686 6.5245863361180527 1.0025757798676975
5.0274514154214156 8.7212409447519104 0.9902197297703302
3.7690685754259698 10.8483448266880593 0.9720116504590407
2.5096140235267637 13.0325310457219459 0.9617101747879503
11.2908683330013631 2.1715781513540366 0.9813251506858176
10.0372306289804332 4.3456893546807391 1.0016103679542570
8.7807235425843579 6.5193217775248957 1.0111734889240034
7.5307704856010869 8.6931967680880415 0.9973178489022585
6.2847970086255796 10.8796634044310867 0.9752853530206238
5.0148589395603675 13.0332372183206608 0.9698469412769176
13.7989752719550669 2.1738259540705185 1.0026130999324541
-2.5083906018165800 4.3469650112043832 1.0242624405919756
-3.7619115861552577 6.5188775684162961 1.0332694289195508
-5.0145979210706875 8.6914733757910838 1.0199644042332741
-6.2698866235260962 10.8661820303589298 0.9960664906315461
0.0023662388571597 0.0043933635160809 0.9876605917345421
0.0000341199349648 1.4487098202177122 4.3425305506419569
-1.2545324702722005 3.6214128903039708 4.3128098090238227
-2.5092456531456673 5.7942660078686945 4.3060616063749846
-3.7640921659941244 7.9673966335675352 4.3303711879806226
-5.0188116255170323 10.1404692315295701 4.3607848472820656
-6.2731771230325117 12.3135078427008526 4.3662030228907618
2.5091714183727443 1.4490238655803604 4.3229132737488678
1.2546872005160665 3.6216054246087142 4.2966014907937593
0.0002173951687081 5.7939989748921166 4.2896462784707996
-1.2545358396883977 7.9672143497134753 4.3098720861211195
-2.5093838781332214 10.1406155914104232 4.3380697190480149
-3.7639975281315592 12.3137766794274768 4.3442296418786945
5.0182671869896245 1.4492471459028875 4.3281109327237450
3.7638217369957307 3.6222556687470298 4.3034412452723823
2.5094530837744200 5.7948140989555776 4.3012444240513243
1.2557135085438236 7.9666147201321609 4.3216754437957690
0.0003606059609694 10.1403812357160881 4.3456750349121300
-1.2546970055063020 12.3138110026937611 4.3497376674430477
7.5274907405568259 1.4490996580596831 4.3537748757714443
6.2728078462734489 3.6221597040280757 4.3284552240066114
5.0181926669611885 5.7952606378900589 4.3266281874873096
3.7640208585088577 7.9673369584551272 4.3430155901626195
2.5104698355817776 10.1398875425874309 4.3750718743762125
1.2548581411700668 12.3136570945122408 4.3774973766745893
10.0368654001152020 1.4488793480500972 4.3736427268430145
8.7819964615258765 3.6217758075494766 4.3462119563643160
7.5271197653626576 5.7946124742134488 4.3447325686898211
6.2720994142474584 7.9670659959471921 4.3693806783718969
5.0181421160664792 10.1399026422738121 4.3956767529743574
3.7642223301289017 12.3134841629476934 4.3980809767697444
12.5460755894671010 1.4487196145544681 4.3673996693714940
11.2913203381714684 3.6215609196765901 4.3380311688236315
10.0364744248869968 5.7944291148706366 4.3344893519788634
8.7815446498965475 7.9672503826220460 4.3608286450397014
7.5269926952581363 10.1401250344105556 4.3894805433334945
6.2729351226588026 12.3133466899059432 4.3924510731756792
1.2544278627072805 0.7243794495277495 7.6886238507717710
0.0000577823744117 2.8973546379583826 7.6971693868340010
-1.2545730195987890 5.0699780335482716 7.6919796559395728
-2.5094508585035351 7.2427864755896874 7.6783762208082660
-3.7642839323000201 9.4158340456046723 7.6704870668190361
-5.0188261645999592 11.5889257260974325 7.6755535489637996
3.7634566587403908 0.7246039348933225 7.7030765673053851
2.5091380021779024 2.8976911638799345 7.7090629904023968
1.2549023905001417 5.0703675622013122 7.7022882122887442
0.0002386906671682 7.2425153930704536 7.6874609232802946
-1.2548219053485883 9.4156958251486103 7.6814952875591933
-2.5096345602878802 11.5890328055508220 7.6895385684567268
6.2726763148625864 0.7246513330048647 7.7083525385456868
5.0181438077474390 2.8979333336009097 7.7140690728821930
3.7639257056900521 5.0711352955089026 7.7034144313404758
2.5104607430851691 7.2434955308807449 7.6882884209664377
1.2556996425638782 9.4150975630048386 7.6791671588577533
-0.0000691367270383 11.5889697515331971 7.6920786176363887
8.7821912560118118 0.7245793811623134 7.6989204119856112
7.5273462885806310 2.8977619645142068 7.7078190001874338
6.2726076819187027 5.0707958557661934 7.6983228894534070
5.0178638842115442 7.2432318537328531 7.6802571777485484
3.7639669488884135 9.4143976867785071 7.6706723402220129
2.5096835991237336 11.5887994793407767 7.6801142522078942
11.2915787232616331 0.7243811768250553 7.6843851504358982
10.0367316573378993 2.8975271609261606 7.6962200186828467
8.7818402445130843 5.0704264789226077 7.6891685448407312
7.5269026357621760 7.2430011314685547 7.6713433779667035
6.2722879865031160 9.4151769089006798 7.6585780800051646
5.0184455446028196 11.5884436907216593 7.6663422798877194
13.8005920153710608 0.7242203651444001 7.6790669750798131
12.5460187899758893 2.8973211426792136 7.6907972455722566
11.2912051341981439 5.0701839393872890 7.6862435698707738
10.0362983061674775 7.2429714957788685 7.6705304478905187
8.7815638243349756 9.4156994747491929 7.6593866872674283
7.5272830443147614 11.5886763846872576 7.6633149214164842
-0.0018065871000837 1.4498304524089913 1.0040361689137189
-1.2535316890623902 3.6251603020959124 1.0277919010443313
-2.5049506373173389 5.7968736468354152 1.0437874374097766
-3.7570447679384307 7.9678991170652083 1.0372485169658794
-5.0156853335104570 10.1405378230902290 1.0134727542311308
-6.2717587755731028 12.3150140427764381 0.9950968075689528
2.5085565840526272 1.4469822380918909 1.0089249887624649
1.2480686541660930 3.6146350736670967 1.0346052547470626
0.0078125282892882 5.8079227620575615 1.0484997444156738
-1.2416722212087763 7.9707998392441448 1.0416822831702321
-2.5088552402811688 10.1403813345922327 1.0203442553960980
-3.7628299778883876 12.3128670015907460 1.0008718250047928
5.0198930248716414 1.4462905731910864 0.9900210498298748
3.7625805968820809 3.6150387164473381 1.0179356485404583
2.4954653871548320 5.7707944856852151 1.0374298743168973
1.2829209849959504 8.0017262097422943 1.0269123035472449
-0.0059181054171722 10.1438669641900212 1.0049224274936361
-1.2542662284645556 12.3130441596229883 0.9846789390035584
7.5309371866309069 1.4424648941327078 0.9691344931978393
6.2751080323513220 3.6167918087731983 0.9920173843710829
5.0135888589841651 5.7862005169344100 1.0129414281821563
2.4939504731770010 10.0991486915159019 0.9881753291153645
1.2583960782483734 12.3003872512051018 0.9681684513363339
10.0371018292486358 1.4436298287287965 0.9664069058273900
8.7829916851698169 3.6202926081541746 0.9860138060660981
7.5245190492462450 5.7965888462852488 1.0041228692222195
6.2780677416098438 7.9764059293717793 0.9975572609991931
5.0323950314775470 10.1646663041559702 0.9759310805473408
3.7563899883543850 12.3000657837931815 0.9649542397782648
12.5435092672143629 1.4460531690203291 0.9835529357333497
11.2923638341446875 3.6210684638461546 1.0050297298087005
10.0382938451447270 5.7947666834144878 1.0214674173068903
8.7873490915712082 7.9684661005116615 1.0145479837860965
7.5327942064279476 10.1452391878738890 0.9896975684893468
6.2759477420084764 12.3228470420819285 0.9751263875711550
1.2545502635569155 0.7243916229528222 4.3461469747686108
-0.0001344242786200 2.8971347841966808 4.3142819319294050
-1.2547354404551032 5.0700344094890921 4.2960975990629064
-2.5091315546222943 7.2432226815518863 4.3105564329628692
-3.7637513288654074 9.4162882283148157 4.3444633787674025
-5.0183958337325461 11.5892302123603042 4.3617747475844952
3.7638408468473163 0.7244620470365910 4.3319143844750831
2.5091462209244142 2.8972851559502955 4.3030964496568167
1.2543258075380790 5.0700147434306846 4.2893203764779901
-0.0000324831545052 7.2431315982341848 4.2998782943788205
-1.2544178648471334 9.4162989229833265 4.3296948436154672
-2.5090929528134449 11.5892709380035388 4.3459891192268403
6.2730709711164474 0.7244239411619453 4.3466061894089245
5.0184167100860861 2.8973191664915423 4.3182821864385108
3.7636284693412865 5.0702524615844640 4.3067184007961838
2.5084862601094597 7.2428120635832824 4.3246423058678793
1.2548166399802474 9.4162535611559885 4.3472327185676241
0.0001528308843452 11.5891928501843058 4.3623771793705899
8.7822304063814656 0.7243457649131547 4.3759916177278875
7.5276240614610286 2.8971986524904070 4.3455606181273607
6.2729703187788539 5.0701611913211782 4.3346284038164526
5.0184589985742276 7.2431144291935610 4.3540229005849884
3.7638066891916075 9.4168518965397645 4.3818077240550881
2.5092763511431131 11.5892686579193374 4.3932316612608124
11.2913457062803708 0.7244229067520418 4.3893714230347047
10.0367888128003049 2.8971581118431771 4.3569483374627360
8.7822054092880482 5.0700802590935572 4.3438856599712921
7.5275099307123368 7.2431443507736892 4.3639903534997853
6.2728203315885844 9.4162731151552510 4.3950972241715069
5.0183259780321503 11.5893140332280939 4.4069426163500136
13.8004592585907524 0.7243670057326287 4.3741808063778818
12.5458709116617388 2.8971541792085738 4.3406400143725259
11.2913635848463905 5.0700820832746105 4.3244357240745135
10.0367645644080046 7.2431799212880028 4.3432499165540355
8.7820627968448886 9.4162228710430522 4.3776800003622141
7.5274638835115431 11.5891949286992268 4.3923609861362136
7.5275191330969786 13.0377276622792557 7.6776479327848319
-1.2545829227954428 2.1730739605537459 7.6923698059837395
12.5459950846981112 4.3459255042096014 7.6933660355634208
11.2913893747400209 6.5187366008984942 7.6798689566389333
10.0367840939403852 8.6916394858003372 7.6656910807360026
8.7821342408931180 10.8646692394553348 7.6646988719382980
2.5091031500985168 0.0000460944552269 7.6922556383727683
1.2545099557599690 2.1731109037953655 7.7034923460530180
-0.0000216069053368 4.3460206830209165 7.7020799364187429
-1.2546513759162330 6.5186756482835726 7.6887199070838435
-2.5092393099284918 8.6915554322334021 7.6780092447861943
-3.7638460014508008 10.8646039955325406 7.6797804898590565
5.0182359848401239 -0.0000469321780540 7.7057200190195179
3.7635986850776209 2.1730388922266077 7.7153771014918497
2.5090096254238290 4.3460324562571087 7.7116321594390884
1.2545984380924462 6.5189958798173135 7.6987914598156486
-0.0001810562191632 8.6914813028508675 7.6867550371374076
-1.2547319913691342 10.8645165276151374 7.6911094664557433
7.5274521705361694 -0.0000856184058101 7.7054758921023447
6.2728192154701521 2.1729556208361771 7.7171842121514285
5.0181976331460287 4.3458526784542029 7.7108894997506168
3.7636449126383837 6.5185129067064844 7.6897244869992134
2.5085525856966311 8.6917717645345594 7.6757396253147601
1.2544644626257662 10.8645591896865152 7.6881438926542760
10.0367013514358998 -0.0000026946415572 7.6908314173356613
8.7821087018350354 2.1730103428800103 7.7063629823746149
7.5274819387908130 4.3459030744693870 7.7029042949738002
6.2727875320819146 6.5187575348735773 7.6849948330623610
5.0183723393001660 8.6915401715225844 7.6657121877286407
3.7635203263686456 10.8642961320265865 7.6739410027335033
5.0183030253624104 13.0376254111219794 7.6770406474024071
11.2913927367476479 2.1730634125159662 7.6941423871389469
10.0368056869141853 4.3459303315604920 7.6941119311972930
8.7821611269217819 6.5187505963203360 7.6775465228671571
7.5275685538886137 8.6916225645232199 7.6609067381958642
6.2728248468454071 10.8645702665519934 7.6604256454269253
2.5095287444752223 8.6920001124353714 1.0078410322801512
3.7032149799505918 8.0028334442977371 1.0095918400528627
