rBN 3-layer slab
1.0
15.0551462173000008 0.0000000000000000 0.0000000000000000
-7.5275736112000002 13.0376828894999992 0.0000000000000000
0.0000000000000000 0.0000169606000000 10.0278787613000002
B N C
107 107 2
Cartesian
1.2518788567416224 2.1685811685914214 1.0079241154560274
0.0019472743635361 4.3510370467760566 1.0060609711248136
-1.2501847432966113 6.5209070005875329 0.9979980412284847
-2.5037057764742432 8.6924049655193460 0.9917087053584630
-3.7644812965332757 10.8647210454788450 0.9935143337003707
-5.0179842221695301 13.0372067628279105 1.0016515787140110
3.7641084965808234 2.1694689113552021 1.0160218174176479
2.5021940872618043 4.3281911020689394 1.0139682602090125
1.2713677910489125 6.5224884596020445 1.0066343709374197
0.0035818381951643 8.7044999019658604 0.9996348073867556
-1.2612993191747708 10.8683322311065105 1.0017218191987642
5.0178005342502523 0.0002698541311087 1.0101141456669362
6.2752366591009467 2.1696904438415601 1.0175934428256812
5.0189004394316310 4.3424623718726512 1.0151606571861291
3.7428981643078103 6.4963757227752437 1.0082700814412466
1.2450992078805043 10.8548631587467526 1.0034711717306315
0.0019143250967167 13.0322826152096578 1.0115625033748616
8.7831079278182962 2.1710851278541585 1.0113375288616024
7.5265171471417283 4.3468730737970986 1.0094437524561666
6.2635086520745196 6.5240860872059718 1.0016216206562232
5.0271809289813936 8.7207126290352441 0.9965743523131915
3.7687607198809046 10.8479572772328563 0.9977545946045796
2.5093216538560088 13.0324375494305809 1.0053824614780706
11.2907005814871226 2.1714550963945425 1.0035643112913595
10.0370885357593380 4.3454493767241038 1.0016845098798086
8.7806298410441936 6.5189249383694960 0.9938891173407739
7.5306744936669281 8.6927018439548061 0.9877924138488079
6.2845966303658427 10.8792435340838818 0.9890260534886443
5.0146407919660252 13.0329912037032614 0.9974142797653723
13.7988296531216790 2.1736423505252596 1.0016576440060974
-2.5084547330903608 4.3467738742447990 0.9998862307555008
-3.7618745068740203 6.5185382465844040 0.9920445520896751
-5.0145163802862278 8.6910927024670865 0.9857392954161659
-6.2699501399569169 10.8658166388300490 0.9872015865222815
0.0021995290624261 0.0041171402357838 0.9952179968432231
0.0000156304306890 1.4486799217457955 4.3439962676666273
-1.2545378068729081 3.6214925950699350 4.3394864488044007
-2.5092651742498662 5.7943665535821358 4.3372619412412954
-3.7641327391224548 7.9674112965288879 4.3397087560420449
-5.0188713194171743 10.1403767135436134 4.3442427464309281
-6.2732354199743527 12.3133775151135065 4.3462327591748435
2.5090814995890307 1.4489322539857408 4.3415615869164661
1.2546517944117659 3.6216826223693879 4.3373720290595639
0.0001917153512069 5.7941122345417959 4.3352006510685284
-1.2545950251787454 7.9672057320019718 4.3375702670836702
-2.5094764761216757 10.1404813756524774 4.3421477153857060
-3.7641044831557613 12.3135933872307053 4.3440475011565480
5.0182168507308047 1.4491738798579894 4.3438347100222936
3.7637986898997919 3.6223289092018307 4.3389346509550473
2.5094927832747116 5.7949811302414735 4.3376477505395030
1.2557338743901085 7.9666698323399174 4.3406642922494107
0.0003297216459720 10.1402835005857348 4.3446216911208984
-1.2547414482081629 12.3136562862537318 4.3466166924037717
7.5275352339502550 1.4490796674599180 4.3485186720843414
6.2728603491053949 3.6222871616424785 4.3435543433867858
5.0182666820460335 5.7954660363404598 4.3406962738429291
3.7640510478450322 7.9674013316211658 4.3368601894335947
2.5105274261604205 10.1399112498035073 4.3494418087098463
1.2549129464607276 12.3135808526206301 4.3512488858404170
10.0369794444028617 1.4489003103527835 4.3508272773116676
8.7820996414573340 3.6219173826206172 4.3461056069106592
7.5272272494471464 5.7948397132992033 4.3437374017070010
6.2722030454053579 7.9672342375959753 4.3453886832433390
5.0182454171412907 10.1400008346594035 4.3507679324540618
3.7643433971266345 12.3134864079196724 4.3530620535010991
12.5461561416064384 1.4487364550611825 4.3484748966726272
11.2913886938135661 3.6216706389620086 4.3439452845539064
10.0365293910822029 5.7945917453216316 4.3417845062074862
8.7815907760693310 7.9673568926259950 4.3440962891220067
7.5270265247471722 10.1401252969223137 4.3482778634039443
6.2730066093124792 12.3133335060545530 4.3507357644656386
1.2544879285548642 0.7244081115996046 7.6870579672234456
0.0001279243026687 2.8972988174977545 7.6866537872996101
-1.2545210432206930 5.0699705158571673 7.6936978941282383
-2.5094028578291301 7.2429136527032005 7.7012497074064159
-3.7642311370289403 9.4160534200570911 7.7019647933488953
-5.0187752784194526 11.5890896061940900 7.6945670305735465
3.7636051134844957 0.7246941050997545 7.6789778070112016
2.5093064689383255 2.8976835833694738 7.6789872015570051
1.2550828230816391 5.0704008343044125 7.6871266464173855
0.0003946454262594 7.2427038503589749 7.6938231868114606
-1.2546600993521662 9.4160008938466895 7.6940145981334842
-2.5094864705501889 11.5892816750336376 7.6864095270889239
6.2728350619527262 0.7247857706426662 7.6712098309266921
5.0183149386336972 2.8979434150739438 7.6713559028554092
3.7641240922264316 5.0711896160470973 7.6784065822512222
2.5106550480525347 7.2437042690330378 7.6868472391308513
1.2558848797390694 9.4154158227701732 7.6841440104925294
0.0000977032295285 11.5892679493057198 7.6790588347440369
8.7822720605441855 0.7246719539919070 7.6715425878053320
7.5274226217027653 2.8977453424315738 7.6715707531967787
6.2727062241354208 5.0708041633662635 7.6798735726276242
5.0179792402489376 7.2434029770508053 7.6877202537826888
3.7640544806419505 9.4146374232795509 7.6873288887700983
2.5097755690475894 11.5890306871144357 7.6797242294669923
11.2915760232073428 0.7244046212738594 7.6797595139904553
10.0367159610662213 2.8974550388236695 7.6794695365197763
8.7818277300325143 5.0703840829659752 7.6870387862041740
7.5268978232474169 7.2430826574310272 7.6953613746442127
6.2722772827579423 9.4153611460994959 7.6943496437713836
5.0184282623024039 11.5886040376763937 7.6886093651359975
13.8005720034047084 0.7242208029055668 7.6874786961524277
12.5459954945199925 2.8972321055027694 7.6869937305422971
11.2911712168401550 5.0701294960517247 7.6941978660477206
10.0362687841746201 7.2430394454833538 7.7021251865019407
8.7815329106857298 9.4158559401485409 7.7024822286149757
7.5272592108140177 11.5887999160962405 7.6951802303646124
-0.0020049427641179 1.4495448809773268 1.0041497153815844
-1.2536902516802668 3.6248554718311352 1.0053730988833951
-2.5049159624459989 5.7965707380437586 0.9983900285899567
-3.7569579934597064 7.9675596810704210 0.9903807051055940
-5.0156996647228071 10.1402577879493130 0.9885875103737930
-6.2719066994524120 12.3147479916330784 0.9954387928313677
2.5083656774167635 1.4467305998614419 1.0127977733163827
1.2478590973158723 3.6142522091045297 1.0135179313268070
0.0077156973898718 5.8075200918884962 1.0067359195468415
-1.2416460061181813 7.9705293982739311 0.9981056785966377
-2.5088929851305468 10.1401763883307616 0.9969916032487169
-3.7629418832899195 12.3127051371336407 1.0043221907988302
5.0196401136187703 1.4461573293965653 1.0199139321473469
3.7623047514422905 3.6146778479311195 1.0202720672073344
2.4952169972646341 5.7703103666773892 1.0138439485438548
1.2827131027962941 8.0013132140193228 1.0058697077996681
-0.0060717789929814 10.1436779217835440 1.0041047834279002
-1.2544636944568082 12.3129421768595329 1.0118378292237733
7.5305875275335978 1.4423948106105990 1.0180660473818270
6.2747783607407488 3.6165557122097467 1.0190644523960264
5.0132714625858075 5.7857333296238966 1.0113772696621044
2.4936579925269706 10.0987655665076392 1.0037176168455957
1.2581068397791713 12.3003078918578250 1.0098623023897544
10.0367965873366529 1.4435374753506447 1.0100982064348349
8.7827170597733435 3.6200092256963985 1.0111388554511977
7.5242819591720638 5.7961569598112881 1.0042059707762117
6.2778261726858515 7.9759061375030740 0.9963259995188879
5.0320929589534602 10.1642499805609923 0.9946600388262712
3.7560533067871109 12.2998224151260640 1.0021583984028348
12.5432780375274167 1.4458032787190340 1.0031222147406471
11.2921883801413721 3.6207976713219687 1.0042957211292813
10.0381833813971859 5.7943810060449206 0.9972602100526126
8.7873110599048534 7.9680576925506523 0.9891354714947066
7.5326193207070098 10.1448454100977230 0.9877617273157240
6.2756950056227332 12.3225238001620330 0.9945884470173261
1.2545322291271339 0.7243775850047779 4.3462188377165569
-0.0001088840179219 2.8972685369767550 4.3418063539910809
-1.2547069680823599 5.0701720510664421 4.3379890710287379
-2.5091407949847708 7.2432288550411785 4.3386846397834136
-3.7637743674603485 9.4161803297678226 4.3435725112758243
-5.0184288350695434 11.5891076769821311 4.3471896108701769
3.7637490132845688 0.7243822923930181 4.3454134624606695
2.5090863137090134 2.8973457494869983 4.3408191657669404
1.2543321918579426 5.0701404084623451 4.3377425112769119
-0.0000727397297713 7.2431289414393127 4.3375112280882231
-1.2544990979823658 9.4161547035731452 4.3423219318685184
-2.5091834379794169 11.5890947830662157 4.3462288524490660
6.2730072534029029 0.7243564672392121 4.3491273797839636
5.0183588379576642 2.8973839233369634 4.3444777639686585
3.7636199415066929 5.0703585208141551 4.3407867554208392
2.5085354677299563 7.2428741134529426 4.3437728883040592
1.2547457807118676 9.4161203382597343 4.3441294555914229
0.0000985930526254 11.5890417627789279 4.3498239313381220
8.7822660630706686 0.7243433898356045 4.3535196814861612
7.5276555798648515 2.8973083241859734 4.3490602765291317
6.2730167070595595 5.0703264739885334 4.3456708759576621
5.0185095022044095 7.2432155323709280 4.3476463590583805
3.7638254064586678 9.4169304179418614 4.3520499563045663
2.5093102658487290 11.5892310211086382 4.3538488072357779
11.2914612685219353 0.7245115110963065 4.3542909763229440
10.0368992895781073 2.8973136136944992 4.3499272560142650
8.7823085914483130 5.0702657198285248 4.3464432771491950
7.5276094165025391 7.2432697402511543 4.3476160747152299
6.2728903912707921 9.4163181148059429 4.3513818639207713
5.0184283986842804 11.5893811687720980 4.3550586719216140
13.8005547629421219 0.7244553754748352 4.3506573444228689
12.5459737257496649 2.8973255084999403 4.3461842260609513
11.2914478515763612 5.0702463937118347 4.3425981466012917
10.0368364901590965 7.2432506589326255 4.3436949307700763
8.7821271247976682 9.4161968369884388 4.3481776015011304
7.5275208840620369 11.5891669877662764 4.3514617901270425
7.5274986877662764 13.0377057933494793 7.6934465455195609
-1.2545887383573415 2.1729886297608112 7.6898356746980721
12.5459791653027128 4.3458955012218849 7.6952401459952977
11.2913669035568311 6.5188313317713424 7.7042081154088287
10.0367594629088153 8.6917997586352023 7.7080683303291622
8.7821006909812827 10.8647684407481435 7.7021623936131691
2.5091363510446199 0.0000559341699949 7.6895882112641978
1.2545664228685609 2.1730525662408295 7.6862681248225257
0.0000465682401085 4.3460266005812178 7.6918787773613824
-1.2545957604574589 6.5188124836992989 7.7006702356034076
-2.5091772019922129 8.6917677437796055 7.7046035768112562
-3.7638089959940735 10.8647557171647140 7.6986627036715820
5.0183619319422093 0.0000438454128332 7.6799771036217885
3.7637317761836897 2.1730333514645754 7.6767628910998118
2.5091682585239083 4.3460896394919910 7.6828775405884171
1.2547670215708080 6.5191603628055219 7.6941333411583361
-0.0000178242078279 8.6917521811614424 7.6962258334647169
-1.2545881449647696 10.8647541821188920 7.6896409511029233
7.5276033421212940 0.0000561331342564 7.6745173765218722
6.2729684104063361 2.1729988199860393 7.6707563436845847
5.0183762077230227 4.3459364559514189 7.6765806066363709
3.7638462064893594 6.5187791620063349 7.6822394890844512
2.5087344571430656 8.6920798729376916 7.6835155346021624
1.2546270070433110 10.8648319109091229 7.6848554036160159
10.0368097262310485 0.0000811400576804 7.6781214249654912
8.7822012765739021 2.1730195349423465 7.6746032105539594
7.5275730837103163 4.3459525878065044 7.6802208624745214
6.2728861890333691 6.5189173557493154 7.6902155302728978
5.0185182668484671 8.6918322157637657 7.6888328410189510
3.7636008507970451 10.8644998528916599 7.6898935483379223
5.0183188185622978 13.0376410440103410 7.6879112113232377
11.2914064990082412 2.1730025611013053 7.6840575427285218
10.0368040319021787 4.3459203969752513 7.6895249611218084
8.7821578264845215 6.5188617170330199 7.6987773004701010
7.5275688711594260 8.6918126599247802 7.7018455375053501
6.2728304701036066 10.8647049366975637 7.6970833067530737
2.5092146916866183 8.6914906671309726 1.0050349396155471
3.7029128395507880 8.0023555350794418 1.0067853929779973
