rBN 3-layer slab
1.0
15.0551462173000008 0.0000000000000000 0.0000000000000000
-7.5275736112000002 13.0376828894999992 0.0000000000000000
0.0000000000000000 0.0000169606000000 10.0278787613000002
B N C
107 107 2
Cartesian
1.2519809466649052 2.1687721436429110 1.0175410212779696
0.0020319718467225 4.3512302459241763 0.9938437026285741
-1.2500930491697246 6.5211114542175501 0.9901461676569533
-2.5036448077180320 8.6925933845550496 1.0117341242796760
-3.7644013491161346 10.8649023359566126 1.0359565185442374
-5.0178924281223107 13.0373891945976119 1.0382187247162755
3.7642406597520033 2.1696278880501296 1.0234694761086520
2.5023006866775317 4.3283420740361693 1.0039088361412729
1.2714651987753915 6.5226650079922113 0.9957540883187880
0.0036935641409197 8.7046908090657507 1.0065050487258538
-1.2611619825013862 10.8685193757427712 1.0280698346932200
5.0179269774199744 0.0004411749139608 1.0357550172634635
6.2754060089782557 2.1698039778052740 1.0059073714406173
5.0190546272937988 4.3425654875900133 0.9960908000456665
3.7430187501761711 6.4965246603192943 0.9923890243958714
1.2452545170746325 10.8550746874690525 1.0065536788421707
0.0020683889938292 13.0324644786673272 1.0116078762663474
8.7832754517988647 2.1712644616644661 0.9807601420472090
7.5266523848395774 4.3470146026629370 0.9776120591908862
6.2636094069395600 6.5242366666357512 0.9835439503571060
5.0273129162243269 8.7209085449038888 0.9926118514448073
3.7689010220492642 10.8481986746705967 0.9960382065747853
2.5094686894634060 13.0326332848795481 0.9902651613247841
11.2908231975095905 2.1716693855090923 0.9739195483975214
10.0372202279271558 4.3456192534666656 0.9653322815280951
8.7807237171589101 6.5190573872739197 0.9777691646781651
7.5307834006873842 8.6928517763135371 0.9964798472309343
6.2847231482332289 10.8794571658245651 1.0043740711471190
5.0147663883496501 13.0332386572255317 0.9941363509933904
13.7989257324613348 2.1738745673803832 0.9930331824920950
-2.5083620374961555 4.3469834630162634 0.9738551679777057
-3.7617867793370965 6.5187082571834356 0.9808610420059235
-5.0144557273981381 8.6912419901259117 1.0062511593533892
-6.2698838278891103 10.8659852154121896 1.0238892560358372
0.0022970319819116 0.0043303004206602 1.0177883667331589
-0.0001116114774913 1.4486973521388995 4.3351773313363928
-1.2546514594370457 3.6214683036900812 4.3413053809730222
-2.5093536236153597 5.7942784436961157 4.3453332632970554
-3.7642150458903880 7.9673062960252654 4.3433914434931351
-5.0189622120090203 10.1403153522188187 4.3370524904712040
-6.2733502788225586 12.3133754534512008 4.3327557731442718
2.5089985366367840 1.4489518121622535 4.3328248564183260
1.2545696458518563 3.6216830805105031 4.3408297038840642
0.0001279678331854 5.7940623690269666 4.3479493200888237
-1.2546406489401449 7.9671267729052841 4.3478310759287098
-2.5095244404502348 10.1404236979812925 4.3401020147997240
-3.7641635984718200 12.3135869443280175 4.3323577011150443
5.0181842398372654 1.4491884101191304 4.3370985973563423
3.7637512359748868 3.6223212816740360 4.3430590604226085
2.5094624927515485 5.7949375446019999 4.3520675720810074
1.2556981279336223 7.9666273027872672 4.3554644236664499
0.0002999059099127 10.1402463010623656 4.3492752275562072
-1.2547650397196723 12.3136555894289810 4.3400728406430353
7.5275042817542150 1.4490876667626233 4.3433377858099238
6.2728233850857453 3.6222714354153367 4.3465743726593038
5.0182165425800962 5.7954177271083624 4.3531583924579564
3.7640108110214969 7.9673435965378889 4.3506170309464656
2.5104713591802406 10.1398872084304106 4.3553708807035187
1.2548719609352730 12.3135814536314268 4.3477036926842523
10.0369019731440012 1.4488961026467813 4.3452111155283184
8.7820343677256893 3.6218777834721640 4.3470243980597276
7.5271560702593820 5.7947663791046145 4.3514428231012401
6.2721230377990258 7.9671710390388935 4.3530872510182634
5.0181620052330880 10.1399809292428245 4.3519077665023236
3.7642507476097600 12.3134910661375816 4.3477594778660231
12.5460273619699443 1.4487369821273419 4.3412125364751430
11.2912843552917579 3.6216222080558209 4.3442547165969696
10.0364370565798531 5.7944927306005951 4.3470500431932821
8.7814919755209413 7.9672613646020185 4.3465235358537999
7.5269131360892843 10.1400805318968654 4.3429175913816591
6.2728744305853086 12.3133394063342880 4.3406693458827172
1.2545276778997614 0.7243766187985713 7.6692335835590280
0.0001860363683308 2.8972980982863801 7.6929778650149609
-1.2544768408556173 5.0700361987243978 7.7051261265410540
-2.5093897176988134 7.2430096434614812 7.6936919006406868
-3.7642349710423524 9.4161191419277230 7.6703083206214000
-5.0187694786421675 11.5890905963033362 7.6578398870268352
3.7635762115156148 0.7246574579656510 7.6580337223153485
2.5093046413763238 2.8976663385258932 7.6748655101456924
1.2551042216891604 5.0704408233604008 7.6891430650441199
0.0004019449258746 7.2427684811030693 7.6853045542275078
-1.2546864473992687 9.4160291373627008 7.6688078181966928
-2.5095278383487654 11.5892632218802820 7.6549179730009982
6.2727581269243045 0.7247239171741857 7.6705755618308142
5.0182551035465464 2.8979210091358163 7.6792260085431527
3.7641005686747815 5.0711991362475395 7.6849495665828496
2.5106575169647218 7.2437168472553983 7.6839050026715023
1.2558770912140782 9.4153860088636403 7.6729115049428369
0.0000378705824212 11.5891961643858981 7.6688813613176441
8.7822162678094617 0.7245900188244860 7.6938424784024493
7.5273561944801548 2.8977282341523058 7.7016500608869469
6.2726421355954773 5.0708441885619537 7.7008375019718143
5.0179530331814055 7.2434277911249074 7.6917535858675032
3.7640542195734308 9.4145892307457313 7.6837920581827888
2.5097481480372390 11.5889304359146941 7.6852650968969529
11.2915896567160150 0.7243328607566922 7.7050935490491552
10.0367056169898596 2.8974401647263401 7.7196726798087969
8.7817953755005806 5.0704448296662932 7.7173082656592360
7.5268733737950244 7.2431624431240129 7.7006488689732757
6.2722967560815643 9.4153713459414519 7.6846456568425570
5.0184579547798149 11.5885277863451446 7.6889110476474452
13.8006332599288033 0.7241719212134570 7.6928593939986669
12.5460462492139886 2.8972331757303333 7.7154719512551111
11.2911924018440182 5.0702006525870269 7.7195969252372425
10.0362674243894645 7.2431415892474016 7.7013827615928010
8.7815508818219250 9.4159146441259765 7.6788413098509780
7.5272966287403280 11.5887855530411095 7.6745469830907309
-0.0018332208997164 1.4496871439206653 1.0145368332995912
-1.2535422250357688 3.6250727284159603 0.9873544000735560
-2.5047778992091225 5.7968687851810001 0.9806041076425618
-3.7568848727914537 7.9678567430180847 1.0021545186218754
-5.0156350917993828 10.1404754469246825 1.0289066891827734
-6.2717758764263305 12.3148762734286361 1.0348752310861802
2.5084845890366960 1.4468335659439862 1.0345970763203196
1.2479718476644301 3.6143864133795227 1.0086462923830748
0.0078148111186718 5.8077542167197747 0.9945026799397813
-1.2415900741711372 7.9708187176482754 1.0051939936262790
-2.5088350836157445 10.1404160399364951 1.0334774644272726
-3.7628715209515735 12.3128425888268556 1.0468450310134267
5.0197080349366807 1.4462306200075001 1.0285132676999098
3.7623858003290476 3.6147636909298120 1.0111904262238349
2.4952958431176624 5.7704686828301117 0.9985054476033772
1.2827780393169099 8.0015260031094790 1.0010421123624471
-0.0059934164166637 10.1438794576349309 1.0190609181911605
-1.2544120860078691 12.3130667865797214 1.0333404138183433
7.5306922378695571 1.4424625297572917 1.0019391758941771
6.2748784658289143 3.6166028920001594 0.9943477085786195
5.0133591021465707 5.7858715172551651 0.9905172269175107
2.4937844017666069 10.0989903348204066 1.0011704244532147
1.2582007306916574 12.3004335988658386 1.0052168015712264
10.0369428935231806 1.4436387368899923 0.9806463201843172
8.7828282055226676 3.6201837308428160 0.9719651000400981
7.5243454332920479 5.7963812345754553 0.9782495993792339
6.2779620904529301 7.9761469996313830 0.9907633273434361
5.0322667355006967 10.1644750906261816 0.9988982450149820
3.7562289883552196 12.2999920446830604 0.9947881418376258
12.5434584412206984 1.4459738724715789 0.9875000467305148
11.2923449906180373 3.6210100582448770 0.9672910161104290
10.0382999801718604 5.7946497960881924 0.9720625415161080
8.7874264133709197 7.9683109932943523 0.9946905412046253
7.5327765012792041 10.1450377801146150 1.0116965168783862
6.2758921183235667 12.3226938500669050 1.0090513920071025
1.2544104286143687 0.7244350195363310 4.3338545692605015
-0.0002239236165326 2.8973285082648257 4.3402139431201485
-1.2547838014881365 5.0701400551545639 4.3467654288734288
-2.5091930218802463 7.2430994649111531 4.3473805649188240
-3.7638330829003506 9.4160502076102759 4.3415180773274242
-5.0185184179538194 11.5890741592037809 4.3344553378120851
3.7637103361352766 0.7244427738155818 4.3344974341911398
2.5090229820632040 2.8974217617515841 4.3401437709600703
1.2542952855902116 5.0701568117169638 4.3496136033596358
-0.0000842042065940 7.2430507521950824 4.3526417205481858
-1.2545005129310545 9.4160501129806349 4.3477202628017082
-2.5091904619249319 11.5890631726974505 4.3383265170520593
6.2730104197078269 0.7244009248951512 4.3414976254490654
5.0183379768963361 2.8974428697987422 4.3442984628932138
3.7635863519507855 5.0703611520408254 4.3529685874107598
2.5085487236458488 7.2428332075697286 4.3602123996399262
1.2547345785375972 9.4160299607400884 4.3546142305520732
0.0001037962981736 11.5890125375331703 4.3476541131096011
8.7822280099156025 0.7243632840392493 4.3472533177892281
7.5276200174064600 2.8973323368845665 4.3479831849189479
6.2729558327434827 5.0702987600470895 4.3546238150810384
5.0184223136051029 7.2431441948429374 4.3610260243696173
3.7637539763147179 9.4168400073491263 4.3601145336363896
2.5092483876104077 11.5891937640503020 4.3524762461599993
11.2913387936123897 0.7245288324161447 4.3466027285152009
10.0368089028634930 2.8973094649510762 4.3474329120862132
8.7822206078711638 5.0701896848306065 4.3514701469092953
7.5274946556476401 7.2431463567405858 4.3545769205991860
6.2727554468487474 9.4162186537521340 4.3528236628553758
5.0182856910680158 11.5893553839884529 4.3494139099199192
13.8003927181832751 0.7244949786272858 4.3401143068021497
12.5458416477510717 2.8973406103556991 4.3436552538198683
11.2913489828946787 5.0701645743907067 4.3474939023760326
10.0367375209991891 7.2430972585418214 4.3479981403888228
8.7820009929049156 9.4160699006860948 4.3442038362589299
7.5273610708474852 11.5891349150300726 4.3399998645749580
7.5275021171652838 13.0377133353384576 7.6795633902851934
-1.2545867676434981 2.1729761951085216 7.7055624365872504
12.5459755866380007 4.3458855223915487 7.7212426016906575
11.2913511782324409 6.5188374117314236 7.7108646550469526
10.0367445358895804 8.6918292175139982 7.6852449296874230
8.7820902646495078 10.8647982776371137 7.6693997520921133
2.5091273079047007 0.0000670096857705 7.6586843061636358
1.2545637105987484 2.1730425966880524 7.6797454562508269
0.0000472019597546 4.3460210186316699 7.6999823201294531
-1.2546060678113624 6.5188242068255633 7.6990694052006852
-2.5092041781223435 8.6918052258674354 7.6787153668326393
-3.7638304748808502 10.8647860036345563 7.6581096154498871
5.0183425707990734 0.0000556320037324 7.6582919771811353
3.7637218505692531 2.1730250907774411 7.6697596256150398
2.5091607338699853 4.3460724046327801 7.6850549911307677
1.2547631112803241 6.5191783200041424 7.6910072241493497
-0.0000415368708882 8.6917741007001545 7.6786376213655263
-1.2546171001790389 10.8647786376438482 7.6627901193533301
7.5275793157294890 0.0000474001810816 7.6789058032478419
6.2729582328850535 2.1729875676566666 7.6856121546239660
5.0183758002973820 4.3459190556738490 7.6909845869300941
3.7638680244570328 6.5187428105125944 7.6857867142207956
2.5087719650052600 8.6920616438400522 7.6771269749906175
1.2546151627780298 10.8648255848634587 7.6786457269332704
10.0368024685958090 0.0000654937816708 7.6990942294359659
8.7821928614136180 2.1729988344083506 7.7110552478938876
7.5275616669158083 4.3459426366028033 7.7129176464979592
6.2728775403566228 6.5189294311214248 7.7028119116414047
5.0185345831291963 8.6918167263597557 7.6856273912315700
3.7636069863823178 10.8644715113526029 7.6908464531245251
5.0183244006117897 13.0376276526972248 7.6998227898044584
11.2914058683373053 2.1729833042188793 7.7212565100747241
10.0367954844368477 4.3459033004957073 7.7277131003878905
8.7821449452102840 6.5188708319916060 7.7127344157897708
7.5275751639044790 8.6918280149591656 7.6906356271421705
6.2728361079173558 10.8647221398674052 7.6847014553075876
2.5093807423910817 8.6916698537075341 0.9995658376646908
3.7030372177272897 8.0025390067984254 0.9962804859706083
