rBN 3-layer slab
1.0
15.0551462173000008 0.0000000000000000 0.0000000000000000
-7.5275736112000002 13.0376828894999992 0.0000000000000000
0.0000000000000000 0.0000169606000000 10.0278787613000002
B N C
107 107 2
Cartesian
1.2520752969787323 2.1687722302762098 0.9955803296802953
0.0021246352366144 4.3513655968361213 0.9879252823662175
-1.2499618510482653 6.5213027444354497 0.9842385590168966
-2.5035042968403274 8.6927115858644939 0.9862260293497899
-3.7642576253929083 10.8648877843136056 0.9932711822969162
-5.0177411579758378 13.0373227736942354 0.9988737589571633
3.7643378516402128 2.1695669776797160 1.0096410537778513
2.5023509141183591 4.3284429059454004 1.0090189010329422
1.2714862645187932 6.5228525509859914 0.9939941441296043
0.0036719501412994 8.7048581200587449 0.9767831769041959
-1.2611878936911434 10.8685551367957203 0.9747172263632827
5.0180301690726621 0.0003472930514071 0.9921585486611815
6.2754533474407426 2.1697044220547754 1.0138022918161298
5.0190756123950280 4.3425990773466383 1.0325534236451634
3.7429702201583561 6.4966682360153269 1.0249262390037024
1.2451163205799300 10.8550498177288368 0.9765825150326520
0.0020546329762196 13.0323144987183248 0.9849383554306266
8.7832908099547442 2.1710640673158053 1.0047177968436343
7.5267680510525121 4.3468876056255912 1.0358538311996386
6.2637184253635612 6.5241910252170143 1.0451004579388938
5.0271697606919323 8.7209149407337492 1.0257259201834397
3.7687589007126769 10.8481272412163090 0.9946787809946653
2.5093819595904541 13.0324603017923941 0.9838515498847156
11.2908299875340479 2.1715594267008611 0.9899868921148880
10.0373317811160945 4.3455719122508860 1.0147313879912376
8.7809126975208258 6.5190563467472753 1.0369089476271787
7.5307646334801079 8.6928469279068317 1.0343952798713409
6.2846658145110537 10.8794002601690458 1.0107228853972194
5.0147054862329048 13.0331270822203145 0.9885757185431507
13.7989740045333598 2.1738662460506712 0.9853466087137945
-2.5082453907907922 4.3470571325844194 0.9901897416021557
-3.7615875370788214 6.5188240158409885 1.0059756529611870
-5.0143388460423619 8.6912838893008590 1.0159538385901838
-6.2697778560393331 10.8659661570431947 1.0115884379239142
0.0023572822633570 0.0042805130153670 0.9964509558484405
-0.0000862292877109 1.4486858555973454 4.3280725303534933
-1.2545646866486406 3.6213575251632881 4.3355075255925621
-2.5092914800439701 5.7941778113429665 4.3479130969487931
-3.7642266357986331 7.9673076311754238 4.3522413993681921
-5.0190439217899918 10.1404217137278305 4.3439686971922464
-6.2734102508200182 12.3134711643740342 4.3321262808817522
2.5088822707839511 1.4489547701695742 4.3332263190395794
1.2545379072631833 3.6215787151459859 4.3298430237701053
0.0001460612024496 5.7939273628638155 4.3582535018040867
-1.2546540708093692 7.9670523410181815 4.3905871726352936
-2.5096131130267194 10.1404604151628348 4.3931602759933233
-3.7643082680179694 12.3136648233454675 4.3643950824315603
5.0180417146115897 1.4492051557023924 4.3469748997931221
3.7636376296102450 3.6222662004074100 4.3160522578038076
2.5094379913370344 5.7948445174052257 4.3334250692657594
1.2557231008410712 7.9665350154898960 4.3832271035079611
0.0002926972418761 10.1402426600571811 4.4138038908930399
-1.2548502314887002 12.3137086282270651 4.3950697664983052
7.5274883337745448 1.4491018766001855 4.3560568075850439
6.2727674917293994 3.6222370859859221 4.3094329050941882
5.0181956186043433 5.7953734005492112 4.2981214840206006
3.7639597234457063 7.9673685148085438 4.3276792978352985
2.5105581383311897 10.1399049205998608 4.3840619720747132
1.2549185102789138 12.3136253443438228 4.3933511702512504
10.0370149480677799 1.4488982563764574 4.3506623716774335
8.7820958280331691 3.6218461896305909 4.3156587123622243
7.5271779953558076 5.7947586735567249 4.2894187762455092
6.2721516610504802 7.9672073406276258 4.2970043191218013
5.0182298900962019 10.1400432886932474 4.3331331931009061
3.7643734075554849 12.3135428535570544 4.3599218656978982
12.5461689724500722 1.4487238534983982 4.3363384613907270
11.2914160630664675 3.6215510128452992 4.3283182406832692
10.0365051053796925 5.7944604602931831 4.3137526499241723
8.7815018623439975 7.9673231164254963 4.3064144389020296
7.5269082836532926 10.1402004078071375 4.3138308295337175
6.2729513637472500 12.3134196755461200 4.3295629410475085
1.2545061801590689 0.7243729134150537 7.7082854053693479
0.0001539308725219 2.8973312150624082 7.7134175402282246
-1.2545658913336377 5.0700199835528155 7.6978304149083643
-2.5095233330485915 7.2428989137733746 7.6768101820759149
-3.7643423662354518 9.4159818324101217 7.6713775490525729
-5.0188246277992494 11.5890088112398661 7.6870944071471863
3.7636094512856126 0.7247316748329915 7.6867894079239871
2.5093886771368421 2.8977449491590703 7.7026643900085494
1.2551702370370748 5.0704486094906365 7.6954090817465701
0.0003979460144215 7.2427010376786658 7.6709780395161085
-1.2547246341421596 9.4159552704898921 7.6545394396231075
-2.5095497390730239 11.5892657545202802 7.6622532318363810
6.2728186354363382 0.7248714735186721 7.6700198237688406
5.0183694372379684 2.8980567492162459 7.6891748726719866
3.7642587440896627 5.0712256958443236 7.6908718907837281
2.5108078434751877 7.2436088380199841 7.6763538006144136
1.2559450237378167 9.4153382344130883 7.6548118204663966
0.0000774644204597 11.5892520859234676 7.6534840835080606
8.7822428823944581 0.7247500266760154 7.6747215006525700
7.5273984222164421 2.8978868739264660 7.6869999227989094
6.2727590425493265 5.0708802187932109 7.6926796265743498
5.0181263343496063 7.2433227277818499 7.6867605682648570
3.7642174842057550 9.4145030042290809 7.6756204575308198
2.5098001456666523 11.5889548704830645 7.6692039133938161
11.2915547274135815 0.7244024595501857 7.6960595997670307
10.0366335758199678 2.8975645673935020 7.6979894427298019
8.7817481180761501 5.0704706402252979 7.6963028840949566
7.5268974523736816 7.2430399131532974 7.6929681049022447
6.2723469581644951 9.4152097306360716 7.6904283495679220
5.0184778390748388 11.5884503717292944 7.6939465015723174
13.8005788217646490 0.7241606243254661 7.7126841369940049
12.5459378848956025 2.8972856703131042 7.7110184740570684
11.2910437570568654 5.0701964194057396 7.6990229884479060
10.0361457228312947 7.2430215674859655 7.6883313623573262
8.7814839508713565 9.4157390727566472 7.6897645206113125
7.5272631416091702 11.5886521295697165 7.7022268050682925
-0.0018298006919482 1.4497033986644403 0.9921942311345432
-1.2535154331889009 3.6251621294477370 0.9865642800537846
-2.5046961316590584 5.7969377879342057 0.9939229867366600
-3.7568089704105825 7.9678409426063501 1.0055812621920943
-5.0155532675347088 10.1403774876336108 1.0108010468372675
-6.2717213110331196 12.3148205142951976 1.0048098094859219
2.5085811749302160 1.4468396816230684 1.0036240107155234
1.2480394422741179 3.6145127782397455 0.9984132524507888
0.0078867917394608 5.8079165889475792 0.9880951069413932
-1.2415064623202867 7.9708974606361425 0.9814645240693910
-2.5087440412809512 10.1403684783147039 0.9833271186803295
-3.7627300362095544 12.3127785516356827 0.9957317107750454
5.0198602439418263 1.4462266086787998 1.0086699977511127
3.7625119318675408 3.6148723791376596 1.0224924661690538
2.4953586869785482 5.7706305945884635 1.0121908541547864
1.2827862134520049 8.0016645308979566 0.9899246235217710
-0.0060267698520411 10.1439228377275352 0.9728986732250884
-1.2543047225725410 12.3130368159268091 0.9823328342120898
7.5307674942873195 1.4424292783602193 1.0037239352755130
6.2749845137137177 3.6167149508464966 1.0353856994797268
5.0134637270951146 5.7859741695604310 1.0423038846062025
2.4936854302619080 10.0989525235627458 0.9901286850597006
1.2581933595556547 12.3003576330289484 0.9807468991702009
10.0369393378167295 1.4435639394729156 0.9931986144532944
8.7829463488975126 3.6201101597204266 1.0247949289789708
7.5245811062536179 5.7962786783304097 1.0497202232398950
6.2779268823447953 7.9760340733435244 1.0432916208735690
5.0321655923062538 10.1643775068719098 1.0135243287099904
3.7561370300523622 12.2998863419472784 0.9885121209856330
12.5434081520735052 1.4459371175475215 0.9867462501682234
11.2923815514701698 3.6210064999880105 0.9994766928043054
10.0384405868503084 5.7946140779386699 1.0257308225811468
8.7873879554557881 7.9681999069740588 1.0374467771146887
7.5327490424576320 10.1449065465306401 1.0246875236758395
6.2758258537204128 12.3226058166554076 0.9997197735844633
1.2544115996445053 0.7244359233006601 4.3323000551880764
-0.0001902484730775 2.8972391900274315 4.3321548516845771
-1.2547082762285888 5.0700706010807641 4.3505060341546100
-2.5091105594661878 7.2431385572627791 4.3692733249844036
-3.7637767250205205 9.4161873375552982 4.3686916537004210
-5.0185022735729179 11.5891891200865871 4.3501822650369446
3.7636170317780846 0.7243697723809688 4.3518328154661106
2.5089168237714259 2.8972895106146908 4.3260546666235218
1.2542173527897249 5.0700538921357179 4.3427040894576345
-0.0001482891417951 7.2430468297059116 4.3853743367722666
-1.2545481167536310 9.4161140197216682 4.4115381079311433
-2.5092480492945186 11.5890964028021131 4.3937538149923805
6.2729138176535191 0.7242867476034666 4.3721662763319040
5.0182051186457368 2.8972653020417871 4.3227517653779151
3.7634316024364742 5.0702538423525478 4.3127234105441028
2.5084308570424150 7.2428049548676841 4.3549374647861301
1.2545895121421060 9.4161126559791342 4.4038573737077211
0.0000180336218417 11.5890212580660155 4.4133995081936988
8.7822236548182886 0.7242744488466533 4.3729780523976238
7.5276133488644765 2.8971555687665904 4.3258205123973328
6.2729363564217175 5.0701729970470062 4.2930712778430387
5.0184278456771407 7.2431368999434200 4.3077510650841013
3.7637146147629261 9.4169512973909306 4.3551139455424250
2.5092110618889438 11.5892533067751096 4.3874553093825979
11.2914300692182401 0.7245022267759004 4.3525616978839201
10.0369372392514347 2.8971873025799062 4.3314621964553108
8.7823455866509512 5.0701177442982219 4.3012093406056700
7.5275934984317665 7.2432230771860437 4.2914031600462854
6.2727669809293820 9.4164028173589003 4.3112166844703106
5.0183310011038822 11.5894756612167349 4.3430803828733042
13.8004863071942481 0.7245147659892569 4.3323459809642566
12.5459915750931241 2.8972550927545480 4.3343478217031874
11.2915232685221021 5.0701108895345319 4.3296213201435414
10.0368931825529675 7.2431874548177984 4.3223385554841540
8.7820902038111370 9.4162698819245385 4.3194099439265017
7.5274197525911850 11.5892929217379610 4.3245654528817523
7.5274871272415051 13.0376439892226550 7.7144360126999096
-1.2545969228815714 2.1729713401219350 7.7199228012158096
12.5458828759677754 4.3458791128699028 7.7085113395950859
11.2911766891800216 6.5187686910212310 7.6912821243067127
10.0365791668031754 8.6917078774089465 7.6852902895777797
8.7820057946483612 10.8646787767561754 7.6967383660637161
2.5090764975419662 0.0000828023439941 7.6981785906081921
1.2545985763222547 2.1730698915994107 7.7148907088926375
0.0000794257268829 4.3460032996257141 7.7075640986039282
-1.2546565847028239 6.5187354112063627 7.6836029105493138
-2.5093289700401891 8.6916956345238390 7.6668555364874900
-3.7639564766339637 10.8647397499745750 7.6736753901869488
5.0183076715087811 0.0001690670956423 7.6729958225746469
3.7637698155294883 2.1731493961624788 7.6965366402606055
2.5093019910364882 4.3461070041135441 7.7008447337243933
1.2548855825805973 6.5191233915003162 7.6844338306884961
0.0000076690775486 8.6916860693770293 7.6597439324303123
-1.2546476324468041 10.8647825830752947 7.6538752521116695
7.5276058476053676 0.0001935497527255 7.6650437540605374
6.2729757019599939 2.1731820120115541 7.6839639313430661
5.0184771412081695 4.3460137129138365 7.6940423630506372
3.7640668784441167 6.5186681387814556 7.6828758339083336
2.5090153346567510 8.6919090535228847 7.6643353138014874
1.2547082577448632 10.8648090893072862 7.6586118099541505
10.0368515373861129 0.0001398640319187 7.6813594654471302
8.7821667241348660 2.1731807265811685 7.6895131517136237
7.5275477708120162 4.3460557217137241 7.6957639985030406
6.2729678654959837 6.5188763309721338 7.6942172369977015
5.0186948795948370 8.6916690969372628 7.6824305253868603
3.7637111719653662 10.8643777564252595 7.6828793878189092
5.0183524158480024 13.0375905437441304 7.7059978185618503
11.2913635639167484 2.1730582346426370 7.7073933023058618
10.0366765178036808 4.3459749794865914 7.7029940624737945
8.7820413856587134 6.5188283910578759 7.6964152312811720
7.5275428063363909 8.6916862768814465 7.6942226409063244
6.2728734720424830 10.8645637746359593 7.6999286571217294
2.5091825396138083 8.6918076828087791 1.0001079750437367
3.7029422083708146 8.0026135528195557 1.0227654903658625
