rBN 3-layer slab
1.0
15.0551462173000008 0.0000000000000000 0.0000000000000000
-7.5275736112000002 13.0376828894999992 0.0000000000000000
0.0000000000000000 0.0000169606000000 10.0278787613000002
B N C
107 107 2
Cartesian
1.2520123927657079 2.1687392294822354 1.0068980986665925
0.0020944246847030 4.3512683452074361 1.0024587785354433
-1.2500819387938287 6.5211383179419560 0.9935289642885186
-2.5036438661859193 8.6925796237747388 1.0002119921960637
-3.7644292700735162 10.8648499637729632 1.0037251676377026
-5.0179217767184268 13.0373181170917594 1.0011682178627879
3.7642299423324621 2.1695398146972922 1.0035290780930117
2.5023670585200288 4.3283256556961662 1.0092090556086006
1.2715127688286625 6.5226761546438397 1.0011156746533529
0.0036869005064933 8.7047107079459014 0.9967221026933525
-1.2611920003029757 10.8685181838484617 1.0015222063153579
5.0178822858789562 0.0003768851091625 0.9995151153945632
6.2753190635656271 2.1697354172988286 0.9942203499281408
5.0190426398490064 4.3425455706947877 0.9999020352891773
3.7430564253850069 6.4965385612392215 1.0044404004268555
1.2452273890801973 10.8550606275480188 1.0056370670919013
0.0020316331661642 13.0324246146114486 1.0029638593858470
8.7832052712285158 2.1712280284682648 1.0006399755102582
7.5265770339511340 4.3469654223805714 0.9961065514920442
6.2636038710331396 6.5242492963367171 1.0019448705449079
5.0272391213902088 8.7209304310185640 1.0006077417579402
3.7688472627314198 10.8481766920914033 1.0031109853211508
2.5094674637498202 13.0326450956380704 1.0097422972502073
11.2908552284823553 2.1716858083323962 1.0050916337617577
10.0371731961087889 4.3455984129280276 1.0012412572736238
8.7806798903624816 6.5190249496094870 1.0072290925613168
7.5306732180372409 8.6928670799280230 1.0039100662238840
6.2846233564065912 10.8794589157457953 0.9944513237439586
5.0147650780649791 13.0332338463261550 1.0015705998164346
13.7989806867042937 2.1739033161761050 1.0019488914240153
-2.5083345394126093 4.3470237370042302 0.9982893213617232
-3.7618031705372168 6.5186968068239963 1.0024143908668421
-5.0145206047907553 8.6911933006467894 1.0094713080726119
-6.2699510876802513 10.8659600837738122 0.9997411823394783
0.0022679443750626 0.0043111576665410 0.9962503701094481
-0.0000021372419978 1.4486554128327909 4.3440123710785290
-1.2546021286565918 3.6214070347028153 4.3475338389338773
-2.5092788327729179 5.7943185196540581 4.3635289490881410
-3.7641550105091985 7.9674132074111554 4.3454031790356593
-5.0188884581871731 10.1404020534152721 4.3241084571845141
-6.2731961256623370 12.3134180319347468 4.3386723854244380
2.5090936841795339 1.4489874680630423 4.3496696538999595
1.2545968502710303 3.6216823487886391 4.3335532945050366
0.0001849560507802 5.7940781795597713 4.3423954779862122
-1.2545544585624138 7.9671681198547883 4.3540789162323863
-2.5094868550251803 10.1404447331138829 4.3397200259008697
-3.7640983909088708 12.3136073150204837 4.3441872738174627
5.0182456326711797 1.4491752083115512 4.3639389506270625
3.7637885527870441 3.6223207165022262 4.3446240305287231
2.5094495770154657 5.7949409885886816 4.3248393349098517
1.2557543641878337 7.9666506734534979 4.3401262153751947
0.0003254369675935 10.1402836674780303 4.3445219613191952
-1.2547729418475468 12.3136327443483040 4.3485081198465378
7.5275462265013777 1.4490641405033355 4.3426509976775192
6.2729016011551852 3.6222434758045878 4.3532760198772014
5.0182217248679546 5.7953622964181113 4.3383896910358528
3.7640171509678289 7.9673481849916987 4.3370335047906075
2.5104942758838371 10.1399209825950489 4.3505550989520918
1.2548550759584765 12.3135991979011035 4.3345770015885572
10.0369422945161197 1.4488653938419558 4.3247670264862430
8.7821240246759107 3.6219062076651669 4.3384348944213587
7.5271993487695665 5.7947978247978913 4.3435590033236080
6.2721310917194799 7.9671464368322944 4.3471311313115404
5.0182285083627551 10.1399451935004450 4.3636947604340808
3.7643106214568762 12.3134642844264750 4.3459398955408028
12.5461086572469025 1.4486404595982492 4.3402669935298785
11.2913504450411697 3.6216089584274815 4.3442135145606366
10.0365035987494462 5.7946087685157108 4.3499309692344443
8.7815276259448449 7.9673709939041713 4.3340247409265844
7.5270218769801991 10.1401146664213950 4.3424300694423250
6.2730291983597555 12.3132893711027833 4.3545300970110690
1.2544488483170830 0.7243431998169331 7.6869903926390366
0.0001628845844233 2.8972872636041509 7.6865579001597100
-1.2544936221605776 5.0699865308997394 7.6812234478811980
-2.5094523750057376 7.2429183622057618 7.6777576078805341
-3.7642697340330353 9.4160549889924141 7.6921311907591106
-5.0188053822334586 11.5890538727253123 7.6958788622650518
3.7635879162823875 0.7246513206326949 7.6779146780754326
2.5092942034769354 2.8976369980499106 7.6829154021335082
1.2550870048634424 5.0703901466619934 7.6965769031368803
0.0003265414968214 7.2426791372493460 7.6915200120383709
-1.2547351419489741 9.4159897116077200 7.6876382737639366
-2.5094893424813773 11.5892782093855526 7.6868251797568306
6.2728560312334833 0.7247530045892883 7.6813828187550035
5.0182678347818266 2.8979483542561408 7.6782462929396438
3.7640907058462831 5.0712218953623989 7.6911431696618537
2.5106292310660807 7.2436922303851938 7.6961819660632118
1.2558382007252205 9.4153346383112613 7.6844318382266765
0.0001257903697278 11.5891980812803439 7.6861781060462571
8.7823039966905192 0.7246288819699949 7.6951306202657923
7.5273860104240811 2.8977402105570840 7.6912871323743808
6.2726650476927999 5.0708474524080502 7.6879030829095854
5.0180001926738216 7.2434358705917870 7.6876161589171579
3.7640570656045886 9.4146054415584786 7.6779767242528472
2.5097905687098785 11.5889583303521313 7.6821623663507612
11.2915784326849984 0.7244352430349162 7.6920364770672336
10.0367197966688835 2.8974703151740169 7.6963033679741457
8.7818172297075403 5.0703655636318645 7.6871242092940468
7.5269571947935043 7.2430687478357054 7.6871859581751769
6.2723225618942688 9.4153471959321671 7.6811762151987937
5.0184181969452055 11.5886007801916424 7.6787359491708918
13.8005439201607292 0.7242457899884642 7.6872291861033055
12.5460311464689038 2.8972935341926007 7.6869626549798289
11.2911842225731363 5.0701413249405833 7.6774866903812375
10.0362848308388255 7.2430060491264312 7.6824168209153942
8.7815611018236890 9.4158174993026318 7.6953557256536511
7.5272244845217227 11.5887660751661379 7.6908477951610648
-0.0018985260253272 1.4497291176366871 1.0042413556166048
-1.2535738340968205 3.6251343884910048 1.0026502027931601
-2.5048312583755132 5.7968297416539860 0.9973231350372741
-3.7569309183897528 7.9676999830620892 1.0087180546144341
-5.0157054504844005 10.1403467697273086 1.0092604776629432
-6.2718811747278620 12.3148709791109141 0.9989038032264715
2.5084562306924560 1.4468160968970560 1.0086181548141573
1.2479766417276716 3.6144124434592211 1.0127620224261082
0.0077911677307537 5.8077652411749474 0.9993564793249378
-1.2415979720583250 7.9707395844187197 0.9955407626772472
-2.5088260017976176 10.1403141377696446 1.0048943325661279
-3.7628900623238031 12.3128002365575391 1.0038438823507725
5.0197144758824628 1.4461950358541520 0.9993144687800911
3.7624386732713715 3.6147446537520715 1.0090057221365774
2.4953669638509997 5.7704788965598919 1.0096295979654106
1.2828315802040564 8.0015412999759814 1.0017650558019842
-0.0059677426793049 10.1438590402554496 1.0037024514375277
-1.2543802156426853 12.3130697741870989 1.0037596809925431
7.5306907383399135 1.4424908258316735 0.9998486452240338
6.2748802683506648 3.6165986510506500 0.9948531947703629
5.0134222354204869 5.7858854646587172 1.0041909773378299
2.4937953485522972 10.0989815611125628 1.0069564895475567
1.2582637032178865 12.3004570871501819 1.0120922514948956
10.0369762260978828 1.4437427597081718 1.0109475772248366
8.7828259155350175 3.6201997872264826 0.9997684161679046
7.5243729103528434 5.7963143151664065 1.0043161128674516
6.2778810105968903 7.9761120562387715 1.0042912918529623
5.0321614152029381 10.1644640699287390 0.9992152823549861
3.7562257378233221 12.3000107350515311 1.0096881962320723
12.5434614730960092 1.4460435827655453 1.0064734851415873
11.2923462070301621 3.6210728954321194 1.0039855755194047
10.0382916174201515 5.7945723470224779 1.0078664744518802
8.7872948857026874 7.9681707039101086 1.0140139613571748
7.5326083038665805 10.1449950957781461 0.9998364954581039
6.2757725448626767 12.3227039667322735 0.9959641400841898
1.2545558043485519 0.7244223833534972 4.3465287529720422
-0.0001480121227952 2.8972471933798913 4.3419260516774747
-1.2547218812157395 5.0701203689926277 4.3591321334085960
-2.5091166941724183 7.2431856887245827 4.3650064806459810
-3.7637712134483428 9.4161813197148021 4.3320093465734377
-5.0184078336709161 11.5891617698385385 4.3306950152938128
3.7637807349060415 0.7244271229272879 4.3624353346643518
2.5090764249168345 2.8973774601681050 4.3440962294686907
1.2542886274584413 5.0701174737635570 4.3271442710248271
-0.0000675015481947 7.2430825776346115 4.3475138760089296
-1.2544843099499474 9.4161083819478613 4.3491602824161850
-2.5091899058234963 11.5890892135950079 4.3460148076453686
6.2730037860874477 0.7243626654232233 4.3603031134171424
5.0183812641102286 2.8973767956230483 4.3651707731305542
3.7635764380059853 5.0703037871719321 4.3318511472386172
2.5084736842217690 7.2427965063981716 4.3336830810929152
1.2547269335234559 9.4160935624824535 4.3444201835095004
0.0000460024914727 11.5890340866818438 4.3424337851660351
8.7822160002406289 0.7243455554868217 4.3270953597820139
7.5276633582634584 2.8972895332904578 4.3477872279400254
6.2729887511182874 5.0702452866673138 4.3494224158844856
5.0184400003050280 7.2431011576301110 4.3474432425256682
3.7637833397579095 9.4168384486781669 4.3627438116206916
2.5092611883331606 11.5892121229028859 4.3440885356063390
11.2914190610706786 0.7244738964348185 4.3330999304194036
10.0368706844896014 2.8972869579794209 4.3310732864396488
8.7822871535033595 5.0702320318118534 4.3466502759288321
7.5275486807507273 7.2432065622585045 4.3431894897154883
6.2728601388578964 9.4162566373080310 4.3599866344367371
5.0184237678631831 11.5893335783512637 4.3656950182094247
13.8005511818405040 0.7244142890377074 4.3503076138170460
12.5459319266181897 2.8972599921435949 4.3461755096430341
11.2914351071788452 5.0702097810120632 4.3621418921145940
10.0368130415823433 7.2432474192342422 4.3450014474836012
8.7821066890289128 9.4162141997693780 4.3272225458926314
7.5275507631992129 11.5891783609387105 4.3483812711084457
7.5274532424127534 13.0376884125833890 7.6923884840697179
-1.2545810271732392 2.1730028170439279 7.6897219339055880
12.5459965822084012 4.3458801835084229 7.6805029879133420
11.2913237046060662 6.5188165389296682 7.6756958051454500
10.0367420073675753 8.6917950246015909 7.6951273334641197
8.7820962881579323 10.8647345490265419 7.7024093543964094
2.5091071831469045 0.0000059958975799 7.6897069508649425
1.2545728850164961 2.1730061008968566 7.6870033339015329
0.0001138682368044 4.3460039983172400 7.6915716368662963
-1.2545995766432061 6.5188092280083803 7.6836026712653300
-2.5092454594589735 8.6918107926572219 7.6882475907412600
-3.7638343814830559 10.8647704372154141 7.6984506098788428
5.0183885602562963 0.0000286046682488 7.6808119467788751
3.7637059249662008 2.1730132755780902 7.6763220790723548
2.5091690018569874 4.3460751770458224 7.6956281577399208
1.2547646362034830 6.5191478281260036 7.7058552787095254
-0.0000664240823288 8.6917435584611127 7.6942681111363767
-1.2545778282936701 10.8647725027122846 7.6901464658087395
7.5276750744436551 0.0000176761387892 7.6912803004551815
6.2729730014277294 2.1729795180647127 7.6836454506428762
5.0183277716655752 4.3459653446783957 7.6870780852568021
3.7638159741372634 6.5187597364876186 7.6934489784506095
2.5086796761660088 8.6919891154978792 7.6836600466621645
1.2546426968877791 10.8647868033548782 7.6874466391891660
10.0368109115349835 0.0000738021097172 7.6951053873684732
8.7822082612056267 2.1729699192434642 7.7031540621486618
7.5275341938624898 4.3459285564398815 7.6925298880150415
6.2728979856258844 6.5189347509099163 7.6901403151627639
5.0185175589029178 8.6917920367112611 7.6773701370974035
3.7635912579758872 10.8644888915120124 7.6780534073983127
5.0182662961931879 13.0376869637834805 7.6877977613859052
11.2913853499052532 2.1730085667251502 7.6987940710103979
10.0367709534325478 4.3458622078697537 7.6896656816640556
8.7821582927320954 6.5188176632888695 7.6865250910799485
7.5276192525012933 8.6917841474798596 7.6909647046123695
6.2728186927051741 10.8646970426274958 7.6837519884564971
2.5093300647830277 8.6916929900306297 1.0046310249617691
3.7030302834316191 8.0025616320889377 1.0065639020131303
