rBN 3-layer slab
1.0
15.0551462173000008 0.0000000000000000 0.0000000000000000
-7.5275736112000002 13.0376828894999992 0.0000000000000000
0.0000000000000000 0.0000169606000000 10.0278787613000002
B N C
107 107 2
Cartesian
1.2519862909890016 2.1688191312015412 0.9964984945281274
0.0020420092768196 4.3512449966452680 1.0011005066430105
-1.2500934960231027 6.5211177313343374 1.0095806767020716
-2.5036212121003909 8.6926531913761256 1.0025591800281175
-3.7643680879179371 10.8649735152841114 0.9995447530585101
-5.0178403537926259 13.0374600858371910 1.0021759739164311
3.7642381878449651 2.1697069239761593 0.9998553541117519
2.5022582361400620 4.3284357321759108 0.9941108447690499
1.2714665682634809 6.5227314257090416 1.0033009941246520
0.0036985712793054 8.7047318078287805 1.0059095607889021
-1.2611755397499853 10.8685527532066466 1.0012165647020124
5.0179599807935809 0.0004945975914154 1.0037550310413701
6.2754244461059479 2.1698962366073244 1.0090650492437885
5.0189952284235666 4.3426647977934030 1.0034313783942812
3.7429726712001758 6.4965879703942360 1.0007930164064245
1.2452371676651484 10.8550813718956061 0.9969956484066885
0.0020836784655439 13.0324793493788516 0.9998072497756659
8.7832837775930148 2.1712967239675725 1.0025725105720629
7.5266669391323040 4.3470891294203762 1.0074434831007206
6.2636021231918049 6.5242522326729473 1.0017783608170407
5.0273260448350969 8.7208848194421709 1.0046258039106342
3.7689218697208204 10.8481646637541651 1.0013089198887530
2.5094556686322353 13.0326190826638992 0.9933730886674034
11.2908052306432243 2.1716359161301235 0.9982589998789850
10.0372221925467713 4.3456845653034426 1.0020993686373283
8.7807391546589244 6.5191642353416901 0.9963212908321337
7.5308005333815400 8.6928862293137374 0.9994243889855010
6.2847773797437352 10.8794237286609761 1.0088704687172878
5.0147702770388598 13.0331784536959603 1.0019924554573276
13.7989308502394437 2.1738259450139337 1.0014844746064442
-2.5083533703441132 4.3469589736287393 1.0050613630480236
-3.7617792290679422 6.5187991601145594 1.0007968228918214
-5.0144323469823178 8.6913586112674448 0.9938131707473556
-6.2698083666980136 10.8660489393571869 1.0036420782731299
0.0023468851604287 0.0043332265287946 1.0071506663201284
-0.0000166053807180 1.4486232139845401 4.3442213222268258
-1.2545237792026285 3.6214467736223677 4.3407103864902936
-2.5093064688422202 5.7942611520997422 4.3246880518963442
-3.7641716628739674 7.9672848028544951 4.3427481042053442
-5.0189177830402310 10.1402701962690678 4.3638461360827039
-6.2733324653239633 12.3132745802627870 4.3491622220977213
2.5090405727383875 1.4487978304629756 4.3381646711087933
1.2546938978686732 3.6215746362087740 4.3547204996724007
0.0001830849901566 5.7940230253044946 4.3460326466369903
-1.2546624404394502 7.9671333164359304 4.3347707464637777
-2.5095042415658630 10.1404423588005326 4.3489346455923945
-3.7641480934380946 12.3135180375855882 4.3438071750653577
5.0181456166798437 1.4490782908698681 4.3240168801874592
3.7637779843011194 3.6222120174947379 4.3425338012614167
2.5095276491028606 5.7948996609861219 4.3636088164617437
1.2556821340360607 7.9665908491305162 4.3500374798104637
0.0002849908293598 10.1402059986507105 4.3447027079690841
-1.2547609682354535 12.3136112357836858 4.3401480908342043
7.5274422815482209 1.4489821941850649 4.3455014075708851
6.2727473497688369 3.6221843676243770 4.3342134515845316
5.0182456689779773 5.7954245623607319 4.3475547456029409
3.7640126581083115 7.9673376507825919 4.3366566839487373
2.5104837045227031 10.1398287239039657 4.3396077555666830
1.2548833968754911 12.3134881625924546 4.3542718525390809
10.0369058774263848 1.4488144406190713 4.3634543317557837
8.7819689807863757 3.6217637262806219 4.3494138613849946
7.5271550720362823 5.7947143151612046 4.3437375351902281
6.2721768593784777 7.9671952141592701 4.3388132349186890
5.0181545843532813 10.1399923128176361 4.3247526670398653
3.7642707297900042 12.3134365329132951 4.3424855855758038
12.5461088211388141 1.4487262233033309 4.3479794518727033
11.2913311426018677 3.6215737674830262 4.3438574885036436
10.0364599226923890 5.7944037535282495 4.3379170692557736
8.7815587362349685 7.9672104315643706 4.3534640305414056
7.5269336608577850 10.1400490576165954 4.3447279920595472
6.2728924455447368 12.3133161236841744 4.3337436786058143
1.2545065238860313 0.7244397412707432 7.6868300944424908
0.0000647265351091 2.8973153975200856 7.6871651138619219
-1.2545842233281086 5.0699734194239356 7.6921422045809908
-2.5093904784917362 7.2428953857693745 7.6953694156967876
-3.7642211266696175 9.4160021215379537 7.6814925731234611
-5.0187671897230421 11.5890662289048336 7.6778018527629373
3.7635795782884203 0.7246926074105130 7.6957657367557770
2.5092703672770185 2.8977194522816951 7.6909313003538067
1.2550066794479202 5.0704153430398327 7.6788727380305781
0.0003878624345473 7.2426960552824946 7.6822298830531448
-1.2546532501303993 9.4159329421792552 7.6860859960774350
-2.5095305611267364 11.5892060293439183 7.6866122853290939
6.2727855282944658 0.7247701651344101 7.6922425186768661
5.0183326290767054 2.8979448342192744 7.6955342074057107
3.7641199199885635 5.0711668867798867 7.6812566722777698
2.5106299338067037 7.2436808663850352 7.6778454989786651
1.2558907694293640 9.4154240103594589 7.6842045157056793
0.0000374548676013 11.5892393993021159 7.6875446495116000
8.7822517883094413 0.7246746682899354 7.6779956660024302
7.5274717450294766 2.8977657156188541 7.6825143967850487
6.2727534312478221 5.0707998530695688 7.6870787299764576
5.0179550193087357 7.2433614949501504 7.6874544135433167
3.7640496902024916 9.4146068139917745 7.6960497343993293
2.5097754455397792 11.5890200452690380 7.6915866510861637
11.2916116079787923 0.7243514959636358 7.6813314496814513
10.0367439237841864 2.8974616256313181 7.6773770238238281
8.7818655270215888 5.0704476746638223 7.6868843078709963
7.5268702074208589 7.2431203197343823 7.6877994471424005
6.2722591713657749 9.4153472883064850 7.6912290293281140
5.0184811618888041 11.5885472424052889 7.6967214377818278
13.8006196462543667 0.7241743017811613 7.6864961113060986
12.5459743903696381 2.8971935093619194 7.6867846601943741
11.2911637209902871 5.0701551084912255 7.6961939455528539
10.0362612103166473 7.2430903382247527 7.6913835325768147
8.7815223240407629 9.4158711607698091 7.6784268049116653
7.5273059983837847 11.5887878401558169 7.6830012382186679
-0.0018983338086312 1.4497369386899592 1.0043068440532348
-1.2535946876828727 3.6250483294007934 1.0058765554523452
-2.5048409557945899 5.7967986462497185 1.0109444772872258
-3.7569006891804340 7.9678531391563956 0.9994547417728791
-5.0155998472222691 10.1404933945685869 0.9991545596525735
-6.2717693036856970 12.3149221397756961 1.0095228664616647
2.5084431365213602 1.4469395460611765 0.9998090902773303
1.2479106093448407 3.6144959834139323 0.9956005305730671
0.0078063455298993 5.8077571063802873 1.0094670829034882
-1.2415699508100979 7.9707627251533228 1.0119476599159274
-2.5088199226621817 10.1403932116851383 1.0032987015866464
-3.7628413751453968 12.3128846716533964 1.0045305758323464
5.0197924060219492 1.4463614488428020 1.0091013622460385
3.7623483774500857 3.6149387741565628 0.9993790646876737
2.4952632718178318 5.7705745327721818 0.9991753327710057
1.2827978446127586 8.0015305935186891 1.0076555884914171
-0.0059592314273688 10.1438772493872698 1.0038326374194122
-1.2543163998068083 12.3131152744016923 1.0044325039997768
7.5308114027286113 1.4425913596111140 1.0083274712284771
6.2749439112384016 3.6168013112146196 1.0135854196639467
5.0133571929962297 5.7859698077199635 1.0040090862705389
2.4938026935088202 10.0989480128582834 1.0024668483509609
1.2582682365217868 12.3004901216868596 0.9953971078767010
10.0369542476468556 1.4437151952282958 0.9973206820677879
8.7828976062595103 3.6202445653358577 1.0086458526027813
7.5244279038643693 5.7964138005699892 1.0044738820484356
6.2779849746734522 7.9760995170866460 1.0039105699615354
5.0322998470092424 10.1644224866918425 1.0095897358009738
3.7562126638632982 12.3000188186304147 0.9991384821526336
12.5433928736768721 1.4459841501675925 1.0020463009525604
11.2922970209895919 3.6209893222552489 1.0045019380579085
10.0382942675228026 5.7946565696367935 1.0005478883560810
8.7874382237703959 7.9683246614745906 0.9944258964553098
7.5328241637933120 10.1450158366197272 1.0085490313209182
6.2758781351843007 12.3226929155214115 1.0124020052612812
1.2544952606283812 0.7243149962202641 4.3460390357729226
-0.0000722383338830 2.8972318972918365 4.3508130118953430
-1.2546949777098710 5.0700983277018139 4.3333738615681794
-2.5091825747713750 7.2431229009853704 4.3272242482441570
-3.7638003344600612 9.4160769152971611 4.3605575262516236
-5.0184706150586313 11.5890159638769514 4.3618317696033717
3.7636913212055720 0.7243015338431661 4.3300916733239729
2.5090828395961973 2.8972383839654983 4.3482457836499355
1.2543846288954541 5.0700463533510023 4.3657934036364017
-0.0000936238275378 7.2430297995383608 4.3439422753023615
-1.2545449188952504 9.4160903535165197 4.3429330706577725
-2.5092090749665150 11.5890484119669299 4.3463028695513843
6.2729297471907950 0.7242801758387677 4.3322661547223440
5.0182671953934737 2.8972781926283253 4.3273467826225787
3.7636090579724590 5.0702532945226064 4.3602537616308554
2.5085644120023258 7.2428086771091191 4.3621687583561064
1.2546784359180994 9.4160072805209030 4.3438729806521845
0.0000656056546638 11.5889705344754059 4.3496604502131504
8.7821921910997336 0.7242547644298900 4.3651355583077844
7.5275285547574189 2.8971910977454183 4.3448538487037363
6.2729338442575280 5.0702221193131223 4.3436743601619030
5.0184723186941609 7.2431522212477226 4.3477297657316969
3.7637522217294488 9.4169276674976459 4.3331060524406437
2.5092342300089912 11.5891676880487715 4.3473662845455454
11.2913902305687355 0.7244872969492651 4.3594064501407948
10.0368153716333612 2.8972132904638577 4.3615563719436743
8.7822198650421424 5.0701132127980646 4.3461302533356641
7.5275610644129811 7.2431474204130888 4.3499069729131232
6.2728032651923398 9.4162569845566040 4.3321179539085204
5.0183224520051368 11.5893839185936596 4.3272417365954210
13.8005035180505580 0.7244696631775915 4.3424315691618780
12.5459605670362944 2.8973028978478972 4.3464885317851873
11.2914020557948724 5.0701247724799918 4.3304853851874361
10.0367987566025914 7.2430856923603493 4.3476377389987233
8.7820814852028608 9.4160667790337342 4.3652947657746353
7.5274270233918132 11.5891096536692544 4.3439612744023233
7.5275286243299755 13.0377003934719831 7.6869219300085776
-1.2546192110067671 2.1729345468824475 7.6895391165230418
12.5459297396664784 4.3458695110057457 7.6986770397122077
11.2913730092226228 6.5188199090751144 7.7032951867475283
10.0367484421462052 8.6918016564124994 7.6838913640751922
8.7820842055367638 10.8648001894656314 7.6764182497185134
2.5091606256378793 0.0000966830045777 7.6894610658271931
1.2545482909752184 2.1730736462629756 7.6923064090956448
-0.0000471429046493 4.3460194012104907 7.6879120719206195
-1.2546211317225022 6.5187923650813202 7.6953754640973191
-2.5091407614581223 8.6917181437096787 7.6914501467236791
-3.7637944588221535 10.8647432718838512 7.6806693862116608
5.0183429760588982 0.0000515435214927 7.6983090284265279
3.7637667140540851 2.1730391808818048 7.7025033266608744
2.5091589196460324 4.3460790880722264 7.6839441068390437
1.2547268087412142 6.5191584907535169 7.6780793245840462
-0.0000032891613878 8.6917481116570485 7.6873003211195590
-1.2546023397676629 10.8647286938863239 7.6899033008629516
7.5275430865770279 0.0000635416707478 7.6884171153713705
6.2729759278329702 2.1729913173381963 7.6953749198602726
5.0184234382304478 4.3458852392435343 7.6910710865497069
3.7638649003297351 6.5187481718324030 7.6772760596101310
2.5087784998253739 8.6921547818003297 7.6833910845141942
1.2546187233295942 10.8648400461315795 7.6941190390577257
10.0368050696575803 0.0000480848374161 7.6838724130340150
8.7821895489771098 2.1730204217053264 7.6758371430431440
7.5276054823042529 4.3459426448952669 7.6863714015992350
6.2728703973712880 6.5188901286252614 7.6899254520368112
5.0184807192470817 8.6918347340838462 7.6933564576281750
3.7636230989126402 10.8644652626279505 7.7058828638705332
5.0183600477241033 13.0375564448946175 7.6916906205826994
11.2914081353675062 2.1729472156104976 7.6803862686788706
10.0368109620625070 4.3459315245287886 7.6893660222975315
8.7821343894269113 6.5188828604436146 7.6923754184450335
7.5274998034771832 8.6918272141813926 7.6871913164022363
6.2728259763030305 10.8646920197580581 7.6958238839265798
2.5093412532984556 8.6917142141453549 1.0054266947874926
3.7030219289423791 8.0025452860664394 1.0072976126608433
