rBN 3-layer slab
1.0
15.0551462173000008 0.0000000000000000 0.0000000000000000
-7.5275736112000002 13.0376828894999992 0.0000000000000000
0.0000000000000000 0.0000169606000000 10.0278787613000002
B N C
107 107 2
Cartesian
1.2519732401006485 2.1688590820611937 0.9912986924588950
0.0020158015728779 4.3512333223641839 1.0004213706967942
-1.2500992746377397 6.5211074380305289 1.0176065329088482
-2.5036098850576263 8.6926899751768190 1.0037327739441442
-3.7643374968401475 10.8650352910396837 0.9974545457689139
-5.0177996423297255 13.0375310702099068 1.0026798519432527
3.7642423106012171 2.1697904786155924 0.9980184921211219
2.5022038249500791 4.3284907704157840 0.9865617393492745
1.2714434679808901 6.5227590612416435 1.0043936538603015
0.0037044066657114 8.7047423577702219 1.0105032898366768
-1.2611673094734899 10.8685700378857391 1.0010637438953396
5.0179988282508932 0.0005534538325419 1.0058749888647736
6.2754771373761082 2.1699766462615724 1.0164873989016123
5.0189715227108467 4.3427244113427097 1.0051960499468333
3.7429307941077599 6.4966126749717441 0.9989693243962092
1.2452420569576239 10.8550917440693997 0.9926749390640821
0.0021097011152338 13.0325067167625512 0.9982289449705755
8.7833230307752643 2.1713310717172258 1.0035387781029652
7.5267118917228899 4.3471509829402786 1.0131119489050588
6.2636012492711375 6.5242537008410615 1.0016951059531070
5.0273695065575410 8.7208620136539743 1.0066348349869811
3.7689591732155208 10.8481586495855460 1.0004078871725541
2.5094497710734429 13.0326060761768154 0.9851884843760014
11.2907802317236587 2.1716109700289876 0.9948426829375987
10.0372466907657625 4.3457276414911510 1.0025284243191803
8.7807687868071476 6.5192338782077925 0.9908673899675422
7.5308641910536895 8.6928958040065947 0.9971815503663094
6.2848543914123063 10.8794061351185682 1.0160800412039526
5.0147728765258002 13.0331507573808629 1.0022033832777741
13.7989059320070186 2.1737872594328485 1.0012522661976588
-2.5083627858098647 4.3469265919409930 1.0084473838911738
-3.7617672583333048 6.5188503367598409 0.9999880389043111
-5.0143882180780990 8.6914412665777707 0.9859841020847275
-6.2697370062068938 10.8660933671488724 1.0055925262399559
0.0023863555531117 0.0043442609599214 1.0126008144254686
-0.0000238394500781 1.4486071145604147 4.3443257978009733
-1.2544846044756468 3.6214666430821434 4.3372986602685017
-2.5093202868768709 5.7942324683225843 4.3052676033004467
-3.7641799890563519 7.9672206005761650 4.3414205667901857
-5.0189324454667590 10.1402042676959674 4.3837149755317988
-6.2734006351547773 12.3132028544268053 4.3544071404343638
2.5090140170178143 1.4487030116629422 4.3324121797132094
1.2547424216674947 3.6215207799188414 4.3653041022560828
0.0001821494598448 5.7939954481768563 4.3478512309623802
-1.2547164313779684 7.9671159147265014 4.3251166615794734
-2.5095129348362040 10.1404411716438556 4.3535419554381578
-3.7641729447027061 12.3134733988681404 4.3436171256893052
5.0180956086841748 1.4490298321490265 4.3040558449676576
3.7637727000581571 3.6221576679909941 4.3414886866277627
2.5095666851465577 5.7948789971848429 4.3829935572376897
1.2556460189601739 7.9665609369690253 4.3549931120280991
0.0002647677602429 10.1401671642370506 4.3447930812940294
-1.2547549814294068 12.3136004815013784 4.3359680763280384
7.5273903090716434 1.4489412210259298 4.3469266125175681
6.2726702240756627 3.6221548135342712 4.3246821674381977
5.0182576410329878 5.7954556953320431 4.3521372728864840
3.7640104116785533 7.9673323836780394 4.3364682735278031
2.5104784188421361 10.1397825945584241 4.3341340838739786
1.2548975573339987 12.3134326449381302 4.3641192780143436
10.0368876688815174 1.4487889640076290 4.3827979843905540
8.7818914588416082 3.6216924855883494 4.3549033448668135
7.5271329336696411 5.7946725603428622 4.3438268011235390
6.2721997432079775 7.9672196028227571 4.3346542867222633
5.0181176223485444 10.1400158724762317 4.3052816203427584
3.7642507839565686 12.3134226571567051 4.3407584305933042
12.5461089030847699 1.4487691051558718 4.3518356810441157
11.2913214913822166 3.6215561720107985 4.3436794754751471
10.0364380846638621 5.7943012460345189 4.3319101192664382
8.7815742913800303 7.9671301503944694 4.3631836753488153
7.5268895527965780 10.1400162532141973 4.3458769533681592
6.2728240691372266 12.3133294999748699 4.3233504694031870
1.2545353616705055 0.7244880119976483 7.6867499453442178
0.0000156475104519 2.8973294644780530 7.6874687207130270
-1.2546295239118741 5.0699668636860338 7.6976015829308873
-2.5093595302347351 7.2428838975511809 7.7041753196049134
-3.7641968229879086 9.4159756878107217 7.6761732643056364
-5.0187480934678339 11.5890724069945943 7.6687633480118800
3.7635754092914371 0.7247132507994221 7.7046912660959483
2.5092584491770600 2.8977606793975874 7.6949392494639559
1.2549665167401594 5.0704279412287523 7.6700206554774280
0.0004185229034103 7.2427045142990689 7.6775848185605309
-1.2546123042211121 9.4159045574650229 7.6853098572341834
-2.5095511704494164 11.5891699393230994 7.6865058381152247
6.2727502768249570 0.7247787454069708 7.6976723686377975
5.0183650262241448 2.8979430742008416 7.7041781646387442
3.7641345270597037 5.0711393824886297 7.6763134235857278
2.5106302851770148 7.2436751843849558 7.6686772654363908
1.2559170537814355 9.4154686963835559 7.6840908544451807
-0.0000067128834620 11.5892600583130019 7.6882279212442715
8.7822256841189041 0.7246975614499057 7.6694281888707492
7.5275146123321743 2.8977784681497392 7.6781280289903817
6.2727976230253324 5.0707760534003290 7.6866665535098937
5.0179324326261936 7.2433243071293312 7.6873735408563952
3.7640460025014426 9.4146075002084242 7.7050862394725712
2.5097678839547295 11.5890509027274913 7.6962987934538658
11.2916281956256910 0.7243096224279955 7.6759789359885602
10.0367559873418379 2.8974572808599688 7.6679138517486702
8.7818896756786131 5.0704887301798012 7.6867643571594710
7.5268267137345370 7.2431461056837199 7.6881061916260123
6.2722274761015271 9.4153473344936440 7.6962554363927742
5.0185126443606043 11.5885204735121121 7.7057141820872959
13.8006575093011872 0.7241385576775097 7.6861295739074960
12.5459460123200053 2.8971434969465788 7.6866956628016467
11.2911534701988607 5.0701620002665457 7.7055475731386611
10.0362494000555600 7.2431324827739143 7.6958668884075259
8.7815029351492981 9.4158979915033978 7.6699623445406715
7.5273467553148157 11.5887987226506581 7.6790779597474685
-0.0018982377002833 1.4497408492165953 1.0043395882715496
-1.2536051144758988 3.6250052998556881 1.0074897317819378
-2.5048458045041277 5.7967830985475848 1.0177551484122018
-3.7568855745757741 7.9679297172035497 0.9948230853521015
-5.0155470455912035 10.1405667069892278 0.9941016006473886
-6.2717133681646136 12.3149477201080870 1.0148323980792611
2.5084365894358118 1.4470012706432367 0.9954045580089168
1.2478775931534252 3.6145377533912879 0.9870197846465465
0.0078139344294721 5.8077530389829572 1.0145223846927636
-1.2415559401859841 7.9707742955206244 1.0201511085352675
-2.5088168830944642 10.1404327486428851 1.0025008860969054
-3.7628170315561933 12.3129268892013233 1.0048739225731336
5.0198313710916915 1.4464446553371271 1.0139948089790121
3.7623032295394427 3.6150358343588080 0.9945657359632217
2.4952114258012483 5.7706223508783268 0.9939482001738033
1.2827809768171095 8.0015252402900447 1.0106008548361334
-0.0059549758014007 10.1438863539531798 1.0038977304103545
-1.2542844918888696 12.3131380245089890 1.0047689155033939
7.5308717349229601 1.4426416265008344 1.0125668842306987
6.2749757326822699 3.6169026412966039 1.0229515321107385
5.0133246717841011 5.7860119792505866 1.0039181407368931
2.4938063659870817 10.0989312387311436 1.0002220277526630
1.2582705031737367 12.3005066389551985 0.9870495360676037
10.0369432584213438 1.4437014129883581 0.9905072344892635
8.7829334516217550 3.6202669543905448 1.0130845708202196
7.5244554006201314 5.7964635432717797 1.0045527666389278
6.2780369567117322 7.9760932475105841 1.0037202090158219
5.0323690629123954 10.1644016950733942 1.0147769625239678
3.7562061268832858 12.3000228604198565 0.9938636251129142
12.5433585739673052 1.4459544338686163 0.9998327088580470
11.2922724279693050 3.6209475356668137 1.0047601193271605
10.0382955925741300 5.7946986809439514 0.9968885953081814
8.7875098928042501 7.9684016402568307 0.9846318640043773
7.5329320937566786 10.1450262070405177 1.0129052992523255
6.2759309303451127 12.3226873899159806 1.0206209378498268
1.2544649887682957 0.7242613026536475 4.3457941771733628
-0.0000343514394269 2.8972242492478095 4.3552564920042762
-1.2546815259569366 5.0700873070564061 4.3204947256479720
-2.5092155150708528 7.2430915071157633 4.3083331320432450
-3.7638148949659209 9.4160247130883405 4.3748316160907166
-5.0185020057524889 11.5889430608961561 4.3774001467581520
3.7636466143553373 0.7242387393011052 4.3139198426537835
2.5090860469358791 2.8971688458641953 4.3503205607405580
1.2544326296139603 5.0700107931447249 4.3851179699421881
-0.0001066849672094 7.2430034104902354 4.3421564749490775
-1.2545752233679017 9.4160813393008489 4.3398194647785653
-2.5092186595380239 11.5890280111528909 4.3464469005043913
6.2728927277424686 0.7242389310465400 4.3182476753749439
5.0182101610350953 2.8972288911309643 4.3084347873685909
3.7636253679556959 5.0702280481979445 4.3744550688269754
2.5086097758926047 7.2428147624645929 4.3764115969877020
1.2546541871154211 9.4159641395401277 4.3435993792235266
0.0000754072362594 11.5889387583721870 4.3532737827367081
8.7821802865292877 0.7242093689014242 4.3841556575706697
7.5274611530043982 2.8971418799728985 4.3433871590855917
6.2729063908271483 5.0702105356360265 4.3408003323006117
5.0184884778887273 7.2431777530565284 4.3478730273347121
3.7637366627152189 9.4169722769073854 4.3182871728506207
2.5092207508469060 11.5891454706217125 4.3490051590151486
11.2913758153177639 0.7244939972064883 4.3725597100014895
10.0367877152052412 2.8971764567060760 4.3767979146956870
8.7821862208115355 5.0700538032911702 4.3458702420390791
7.5275672562441072 7.2431178494903810 4.3532657145119398
6.2727748283595615 9.4162571581808923 4.3181836136444121
5.0182717940761146 11.5894090887148593 4.3080150957884200
13.8004796861555832 0.7244973502475336 4.3384935468342940
12.5459748872453449 2.8973243507000483 4.3466450428562640
11.2913855301028860 5.0700822682139561 4.3146571317238571
10.0367916141127171 7.2430048289234028 4.3489558847562844
8.7820688832898330 9.4159930686659123 4.3843308757156381
7.5273651534881143 11.5890753000345246 4.3417512760492611
7.5275663152885866 13.0377063839162801 7.6841886529780075
-1.2546383029235308 2.1729004118017077 7.6894477078317696
12.5458963183955188 4.3458641747544071 7.7077640656116397
11.2913976615308993 6.5188215941478367 7.7170948775485666
10.0367516595355202 8.6918049723179536 7.6782733793807285
8.7820781642261796 10.8648330096851762 7.6634226973795663
2.5091873468833672 0.0001420265580766 7.6893381233083185
1.2545359939545795 2.1731074189460347 7.6949579466927016
-0.0001276484753762 4.3460271026571160 7.6860822894477820
-1.2546319092621505 6.5187839336177911 7.7012618605133127
-2.5090884124576966 8.6916718192359088 7.6930514247148887
-3.7637744974917022 10.8647296892180698 7.6717787743780708
5.0183201839601992 0.0000630129481146 7.7070575692503551
3.7637971085980273 2.1730521335336621 7.7155939504551334
2.5091538785405549 4.3460810435854285 7.6781020813886052
1.2547078950100801 6.5191638220672736 7.6641913475213066
0.0000282782990827 8.6917503882550147 7.6838164261111501
-1.2546145955046593 10.8647067894733418 7.6897817183900576
7.5274770926437133 0.0000864744367271 7.6869855228294641
6.2729773910355915 2.1729972169749381 7.7012396544689716
5.0184712715128841 4.3458451865261027 7.6930675871961602
3.7638893634259709 6.5187423895047942 7.6691896001898909
2.5088279116550565 8.6922376149515568 7.6832566034402099
1.2546067365505018 10.8648666675199301 7.6974552389920055
10.0368021487188770 0.0000352262012655 7.6782559258667860
8.7821801928628496 2.1730456729362571 7.6621786834903860
7.5276411265251344 4.3459496891229596 7.6832921583913318
6.2728566032439899 6.5188678174829331 7.6898180204738340
5.0184622994191637 8.6918560827701370 7.7013496178935608
3.7636390193810163 10.8644534481859196 7.7197975921066426
5.0184069234895601 13.0374911854501860 7.6936370501810964
11.2914195280986345 2.1729165400531714 7.6711823675131079
10.0368309663774848 4.3459661828583069 7.6892161926142686
8.7821224377743192 6.5189154590209872 7.6953005821275760
7.5274400789651281 8.6918487475321609 7.6853046222971688
6.2728296181019578 10.8646895083233375 7.7018598316616202
2.5093468475561695 8.6917248262027194 1.0058245297003541
3.7030177516977592 8.0025371130551903 1.0076644679847000
