rBN 3-layer slab
1.0
15.0551462173000008 0.0000000000000000 0.0000000000000000
-7.5275736112000002 13.0376828894999992 0.0000000000000000
0.0000000000000000 0.0000169606000000 10.0278787613000002
B N C
107 107 2
Cartesian
1.2600352142778928 2.1637467597779589 1.0018213064719452
0.0100794608774440 4.3462144002198988 1.0020345554084873
-1.2420967950577848 6.5160627858906617 1.0016330086219767
-2.4956351650040220 8.6875492289110952 1.0013032112755553
-3.7563641471508795 10.8598529562710482 1.0014139935340838
-5.0098552682854542 13.0323326651802223 1.0015387754610907
3.7722730041448735 2.1645795582322607 1.0015300906601727
2.5103564070818747 4.3233392327385287 1.0018107745905822
1.2795029898745103 6.5176531637776636 1.0024202355722345
0.0116788332271086 8.6996468199864339 1.0015266111007319
-1.2531497857770035 10.8634759427797203 1.0014305702795265
5.0259517741999318 -0.0046247703691933 1.0013688094683357
6.2833900800611380 2.1647844096590219 1.0013480297359605
5.0270393515871872 4.3375918691995210 1.0017364297293478
3.7510127604101999 6.4915304917306695 1.0030134159634880
1.2532526183717654 10.8500623246308798 1.0015067844530916
0.0100759237407231 13.0274317608543200 1.0012392313607392
8.7912717320461251 2.1662325194114342 1.0015130539412092
7.5346367854657696 4.3419804084165854 1.0018843517283476
6.2716391941085359 6.5191903975732757 1.0022409863941695
5.0352791305882674 8.7158652719169911 1.0030246841574377
3.7769011099650620 10.8431260803789407 1.0024223200841211
2.5174766045741395 13.0276140397581859 1.0015922850635559
11.2988670437208736 2.1666107996432937 1.0018471924834347
10.0452220149514133 4.3405864674573253 1.0018008135195122
8.7887251717758250 6.5140441358438483 1.0019292074150514
7.5387297477306694 8.6878042851139554 1.0018048584971215
6.2927245582601721 10.8743616951510234 1.0018579333103930
5.0227762595200769 13.0281567884696852 1.0020416407483519
13.8070027334533627 2.1687941048450301 1.0020419339345701
-2.5003166032091086 4.3419201072930109 1.0018704599579948
-3.7537828716073793 6.5136767307149794 1.0015768972281949
-5.0064681071421457 8.6862133905163450 1.0014412051525385
-6.2618546374566604 10.8609292608727603 1.0016041518286964
0.0103206805587306 -0.0007556541722373 1.0018475997002416
-0.0033381331409761 1.4504185892098320 4.3442586874296607
-1.2578934458359434 3.6232045129426584 4.3443554381740110
-2.5126235170093634 5.7960683327585443 4.3443241959197021
-3.7674958589829810 7.9691276963959643 4.3441878652669903
-5.0222341233042407 10.1421143423336453 4.3439807307677381
-6.2765932157146382 12.3151249500667870 4.3439242663558852
2.5057391966836611 1.4506733934756681 4.3439089803675044
1.2513140952508597 3.6234072926144045 4.3442749385374970
-0.0031503467721367 5.7958288198117138 4.3444169856323249
-1.2579456244015585 7.9689317648573752 4.3445926817544196
-2.5128286227165106 10.1422235147682063 4.3443461203242411
-3.7674519573800707 12.3153424433868324 4.3439134835348838
5.0148665292977110 1.4509088335572102 4.3439413355903786
3.7604545522507360 3.6240482340706213 4.3436542101863642
2.5061581650522493 5.7966963215346814 4.3443289279021791
1.2523740357472530 7.9684023287342454 4.3452221900954564
-0.0030360225479982 10.1420303876618902 4.3447359991001386
-1.2580991142584652 12.3154043482375855 4.3443242900473704
7.5241632082715224 1.4508060512540426 4.3441445913748060
6.2694974386501121 3.6239955070917307 4.3438709318008240
5.0149108860452705 5.7971744906839282 4.3431991658810762
3.7606995563255383 7.9691141203725246 4.3369115059886738
2.5071490654219031 10.1416657621391231 4.3452133921976683
1.2515326971972764 12.3153286328741842 4.3445652943135924
10.0335932596905195 1.4506207414291310 4.3443001560291359
8.7787197314105967 3.6236147733612318 4.3441128365040873
7.5238517095006250 5.7965334084106059 4.3438945689467232
6.2688266437813818 7.9689436316745637 4.3432148721262074
5.0148645705292525 10.1417510799520230 4.3443336155118510
3.7609586878328014 12.3152343597747791 4.3444023612376510
12.5427797806772041 1.4504636018784467 4.3443504037446168
11.2880130486791739 3.6233693880512208 4.3442734952765036
10.0331541338195578 5.7962828928277395 4.3441348877310446
8.7782137816635970 7.9690670811359352 4.3439112073746884
7.5236472144358597 10.1418598819058214 4.3436850425624183
6.2696312195489892 12.3150842288014228 4.3442826268154633
1.2471847388908679 0.7290841310419691 7.6869019696462848
-0.0071817502089907 2.9019957300666990 7.6870263825097869
-1.2618320845224085 5.0746804411574313 7.6869083038057466
-2.5167228157967716 7.2476069883066483 7.6866518653268674
-3.7715436396155368 9.4207249111420648 7.6867030175952271
-5.0260784711749995 11.5937534407103993 7.6866933182540507
3.7562926197173496 0.7293654761568504 7.6866738131963714
2.5019909793230286 2.9023680788587130 7.6869512450470463
1.2477505292758988 5.0750967030920737 7.6879746602377628
-0.0069539821252660 7.2473961180696316 7.6871769606475482
-1.2620038077077571 9.4206646115947645 7.6868897262048206
-2.5168101039464701 11.5939394889803218 7.6865343635852987
6.2655268903870089 0.7294563337969617 7.6866585414325268
5.0110177064073200 2.9026365014908038 7.6868322596374776
3.7568156558772832 5.0758811023450212 7.6863507144978946
2.5033367196617067 7.2483660661910703 7.6874963759224277
1.2485406555584178 9.4200890599289888 7.6847570879952229
-0.0072290326290485 11.5939177502641417 7.6868638272793328
8.7749755166730949 0.7293476108176913 7.6866024096937720
7.5201450042212103 2.9024496722158100 7.6869015580825879
6.2654162493089434 5.0755199486747600 7.6876287984995102
5.0106788146792054 7.2480936651902184 7.6878688051489652
3.7567705332219932 9.4193061577524340 7.6874815081216852
2.5024663223773853 11.5936909543030353 7.6871357190725558
11.2842959426301732 0.7290839807673652 7.6868800554517085
10.0294481613642521 2.9021558769875759 7.6869674516371571
8.7745526631940294 5.0750992385275602 7.6871283516698403
7.5196161649075384 7.2477843323918547 7.6876578525840218
6.2650047006045879 9.4200412087699643 7.6863809836440344
5.0111536494748119 11.5932691606610394 7.6879640317466924
13.7932860983309933 0.7289031021617350 7.6870236143759039
12.5387129966962352 2.9019350620681670 7.6870783310847290
11.2838891608392036 5.0748365745657242 7.6869897940236012
10.0289801805040550 7.2477366778114032 7.6869481292944375
8.7742535591007602 9.4205316455941652 7.6868777634070593
7.5199772204284807 11.5934694642491216 7.6869693189193171
0.0061508347192201 1.4446615888308552 1.0045096301286160
-1.2455492156251649 3.6200132909504421 1.0046046878185844
-2.4968215239253482 5.7917386516252307 1.0041611030776676
-3.7489298766030172 7.9626980630609596 1.0038837389940174
-5.0076134220389621 10.1353559934251365 1.0039199754666892
-6.2637970497368647 12.3098235094707888 1.0041749982487564
2.5164882745006132 1.4418277776753898 1.0041334162011513
1.2559750334409034 3.6094368997271280 1.0043808045378282
0.0157916707734353 5.8027202709394059 1.0046136354781130
-1.2336283186899613 7.9656787517591443 1.0038086563685182
-2.5007887135326654 10.1352890255731012 1.0039944078518324
-3.7548339145971630 12.3077822451817305 1.0039461921209665
5.0277894816102400 1.4412162855897310 1.0038293133932754
3.7704375335570366 3.6098073921677112 1.0042227981499980
2.5033208217566401 5.7654934599170264 1.0046326886942476
1.2907936386143859 7.9964821262339534 1.0049003697202108
0.0020698934639915 10.1388071881551660 1.0041073149107389
-1.2463129426796429 12.3080357788675947 1.0039508488564117
7.5387713046444578 1.4375366757298540 1.0037983216199666
6.2829245309009316 3.6116694108469103 1.0040648187620762
5.0213978148027714 5.7809182792244105 1.0044453982180646
2.5018013809262234 10.0939544494466702 1.0048913330546916
1.2662676556178030 12.2954918707822429 1.0037606677935904
10.0449988490681275 1.4386942370749267 1.0041053953869692
8.7908879105040345 3.6151819915558523 1.0042834758175383
7.5324251687263297 5.7913097058482004 1.0047718897165223
6.2859157473257730 7.9710444631010544 1.0044745142567872
5.0402279678799733 10.1593942815837242 1.0046559487003408
3.7642168407587855 12.2949842749775176 1.0046032622902461
12.5514732129752531 1.4409602871408882 1.0045932092193737
11.3003513694102118 3.6159717922898227 1.0044228548112408
10.0463078780620911 5.7895496860739630 1.0043255460226002
8.7953713830628804 7.9631908527435211 1.0041539218797331
7.5407353751288957 10.1399224517388635 1.0043032081208161
6.2838239503400981 12.3176187119632399 1.0044160328150331
1.2511985705380408 0.7261480864060519 4.3463168968897961
-0.0034383748348053 2.8990182365588590 4.3465606539064980
-1.2580383464548253 5.0718868132321662 4.3464887661048390
-2.5124827842820676 7.2449329679093584 4.3462816146355090
-3.7671170711147277 9.4179076944137030 4.3463020546531466
-5.0217679999431137 11.5908682335598456 4.3461979484696682
3.7604081082013519 0.7261456845655520 4.3461750611565559
2.5057511810801301 2.8990897749389037 4.3462247654950552
1.2510064991758942 5.0718615130608411 4.3466287208690009
-0.0034162425117386 7.2448341554137912 4.3459360458676510
-1.2578492471449996 9.4178791694143555 4.3461617753511268
-2.5125290899059038 11.5908490606330172 4.3461054255939908
6.2696374001100388 0.7261041635885636 4.3462597869154971
5.0149959391532235 2.8991097018998335 4.3462946243547478
3.7602636259903575 5.0720617401862436 4.3461911097150754
2.5051849405561133 7.2445889710488540 4.3479402791295092
1.2513637487551468 9.4178352724412697 4.3443216169212668
-0.0032770132077563 11.5907863701672387 4.3461423432698654
8.7788729191592765 0.7260840521605829 4.3462447957815602
7.5242692318110072 2.8990214432595640 4.3464354829019038
6.2696366123467628 5.0720119462586863 4.3467807043516791
5.0151359283819952 7.2449015905555925 4.3478874437546757
3.7604301652198808 9.4186644998145166 4.3479329078940889
2.5059154710686005 11.5909761802801654 4.3459168520937883
11.2880761395278792 0.7262620805583111 4.3464712027191990
10.0335168578474185 2.8990291179585941 4.3465240150476054
8.7789288259319260 5.0719502026874146 4.3466228764545782
7.5242298166534578 7.2449541749540600 4.3468041448636168
6.2694998968032465 9.4180352993142193 4.3462119118263365
5.0150435623098168 11.5911399295061734 4.3466297012303059
13.7971997843368506 0.7262218130079416 4.3465618190004776
12.5426189761520703 2.8990597199335335 4.3465884009307558
11.2880920019076232 5.0719444219756280 4.3465420544344333
10.0334775719210327 7.2449435919877692 4.3464780966965648
8.7787639630600793 9.4179188262917339 4.3463405342046988
7.5241593332207826 11.5909230452880188 4.3462459665571442
7.5202166886172765 13.0423749475830544 7.6897220328209928
-1.2618746318767504 2.1776491047380682 7.6898267460570890
12.5387030320472359 4.3505511498431746 7.6897935263702903
11.2840815560286494 6.5234906970465554 7.6895781206327571
10.0294753924476598 8.6964736476308779 7.6894549095663258
8.7748235377357879 10.8694416715344602 7.6893497155085395
2.5018620066092483 0.0047314996964623 7.6894475631777182
1.2472845561997117 2.1777202957976685 7.6897181544149626
-0.0072399031004349 4.3506963980202125 7.6899687070389842
-1.2618903088895215 6.5234910045247911 7.6897031357723966
-2.5164746296112557 8.6964488367948327 7.6898108758718937
-3.7710895991742595 10.8694380397926214 7.6893672851660044
5.0110930924900634 0.0047222258153085 7.6893399037925532
3.7564711959207093 2.1777063911999122 7.6893205714176878
2.5018867336596591 4.3507595352095034 7.6899301623593859
1.2474597038301913 6.5238445277011810 7.6923604925162179
-0.0073218151979333 8.6964361784620312 7.6910181561004132
-1.2618747523364375 10.8694360153819183 7.6899327291360082
7.5203308702014509 0.0047223314161991 7.6897642760815001
6.2657144539783634 2.1776652406470030 7.6893999634017272
5.0111090932139000 4.3505985987303548 7.6891341015520629
3.7565610975820380 6.5234274160421739 7.6856448029925710
2.5014511184385873 8.6967552280631288 7.6843559283433818
1.2473411848944920 10.8694986434568595 7.6909903503851291
10.0295241872700114 0.0047442551699702 7.6896542356072670
8.7749383806014869 2.1776727964272964 7.6895346014581767
7.5202972983487948 4.3506207391904121 7.6895412059875801
6.2656018304442718 6.5235966609579581 7.6902708115420237
5.0112264834847515 8.6965022001622447 7.6856672422535484
3.7563173776110719 10.8691642265017911 7.6923214313857038
5.0110352903888380 13.0422995158946016 7.6899544385182468
11.2841339309174913 2.1776503654820236 7.6897759072327254
10.0295290103419799 4.3505728379843713 7.6896505612573902
8.7748706681053630 6.5235310572443082 7.6895733763653027
7.5202930762128757 8.6964823699611866 7.6891803908884331
6.2655464528110096 10.8693780867416390 7.6899495449755575
2.5173233798476513 8.6866728900825052 1.0052784353749984
3.7109946467702248 7.9975335539503076 1.0074059792123715
