rBN 3-layer slab
1.0
15.0551462173000008 0.0000000000000000 0.0000000000000000
-7.5275736112000002 13.0376828894999992 0.0000000000000000
0.0000000000000000 0.0000169606000000 10.0278787613000002
B N C
107 107 2
Cartesian
1.2680710866784308 2.1587143392140291 1.0019443163465303
0.0180907047741267 4.3411721295134456 1.0022894682277479
-1.2341058727071037 6.5109975471431767 1.0017111967486583
-2.4876377908648895 8.6824820502467581 1.0012208364390200
-3.7483296153060324 10.8547941730135591 1.0011930267200613
-5.0018294713153821 13.0272762288959694 1.0014054550325722
3.7803119432010335 2.1595357471277956 1.0013679652179637
2.5184001668337035 4.3182977715410189 1.0019615989923392
1.2875163112029486 6.5126025373788865 1.0026321367554667
0.0196649305613178 8.6945723820855250 1.0017373904603366
-1.2451158015275265 10.8584164170318864 1.0014917550503679
5.0339824150635941 -0.0096852820886756 1.0011025457187051
6.2914084052864894 2.1597529923649668 1.0010533598859566
5.0350597690380869 4.3325785541549475 1.0018061526169664
3.7590109725278085 6.4864977176446104 1.0034101235103361
1.2612729583708577 10.8450536495399490 1.0016972111568883
0.0180941916655922 13.0224115397134899 1.0010929081407223
8.7992989396814831 2.1612026626049499 1.0014198648412580
7.5426515843898203 4.3369335409326970 1.0019936861603127
6.2796753911045995 6.5141300306417182 1.0026203571073644
5.0432756780638819 8.7108229186036130 1.0034325954805883
3.7849176537040035 10.8380814828350953 1.0026346875632903
2.5254916429572516 13.0225959903653870 1.0016268771683068
11.3069038578789556 2.1615607370553276 1.0020190681464982
10.0532463355750465 4.3355314457989165 1.0019313140835482
8.7967408210409470 6.5089936792121090 1.0020832231333776
7.5467226197519475 8.6827319156070288 1.0019424893895503
6.3007487484451810 10.8692820680986610 1.0020549703901627
5.0307848414882343 13.0231074269283109 1.0023017538598225
13.8150496984348585 2.1637235790950409 1.0023671848539104
-2.4922892515398565 4.3368488592695371 1.0020655777111165
-3.7457745434121792 6.5086054779606810 1.0015481875770580
-4.9984597383977549 8.6811508250755747 1.0012401708950935
-6.2538295477241883 10.8558540101800212 1.0015166733510885
0.0183339463497156 -0.0058335004421425 1.0019946811856950
-0.0066668949705942 1.4521978650109988 4.3444005282066431
-1.2612239377422765 3.6249821217227254 4.3445887636359357
-2.5159543832111577 5.7978468296401875 4.3445398913471625
-3.7708283812743795 7.9709063876591033 4.3443000889134780
-5.0255651259947784 10.1438925598251206 4.3439841649018662
-6.2799221359361255 12.3169035940348088 4.3439312289506899
2.5024112649083614 1.4524541376883273 4.3439007982306332
1.2479828164318674 3.6251860927301025 4.3444129799862745
-0.0064847140647418 5.7976070371912947 4.3446199089530495
-1.2612827993021853 7.9707128115693902 4.3447605321607581
-2.5161616971374992 10.1440034835792048 4.3443649049018500
-3.7707806725866586 12.3171222104706306 4.3438297426283574
5.0115374339199104 1.4526909175237108 4.3439047557734956
3.7571258359573907 3.6258301011427601 4.3437295044776594
2.5028277170453350 5.7984723182819611 4.3444337801185613
1.2490298223825589 7.9701838961764846 4.3453625325980836
-0.0063772589944729 10.1438159422594083 4.3448596635561385
-1.2614312734754303 12.3171867064091760 4.3443204747543698
7.5208321625182455 1.4525889351638852 4.3442129801254108
6.2661704018382141 3.6257770924689789 4.3439971278707805
5.0115880751675759 5.7989555519784357 4.3434261134427565
3.7573842081130069 7.9708853228579040 4.3369779176076744
2.5038091406405361 10.1434566710287406 4.3453453571359493
1.2481961579775691 12.3171135855015894 4.3447061615633658
10.0302624334097850 1.4524015656277485 4.3444896329372593
8.7753929600900520 3.6253945797495692 4.3443012951049989
7.5205262085983247 5.7983107468416639 4.3441408686365284
6.2654993120137847 7.9707164378533450 4.3434575611372992
5.0115375947004868 10.1435334067450054 4.3444435172867282
3.7576267000421621 12.3170183108796714 4.3445919819169987
12.5394508221615482 1.4522438623061034 4.3445775847879426
11.2846853035368291 3.6251474131471872 4.3445114890208671
10.0298265069181962 5.7980595246334978 4.3443457562169812
8.7748843822372873 7.9708434495375986 4.3440780290153818
7.5203166599527274 10.1436379017926495 4.3437910543738996
6.2663016171457313 12.3168657102093686 4.3444283658224849
1.2398917916801786 0.7337767915401001 7.6868936957518068
-0.0144773059777476 2.9066901295712797 7.6871912580087578
-1.2691252463004741 5.0793809071530251 7.6871337813803997
-2.5240242048448058 7.2523071026257284 7.6867402188650740
-3.7788418488797473 9.4254212670189439 7.6865941532491684
-5.0333706563717486 11.5984468306057273 7.6865462789941077
3.7490014921492953 0.7340589882920968 7.6865074189771381
2.4946996732690803 2.9070579325516235 7.6869791388504352
1.2404542163961161 5.0797906613332335 7.6882244998917963
-0.0142651662162164 7.2521046398733429 7.6874789737493394
-1.2693134193758273 9.4253678962960432 7.6869173174889545
-2.5241102560888833 11.5986368585959081 7.6863499946276352
6.2582330010100433 0.7341510827320742 7.6865044141491188
5.0037351808853732 2.9073264087439004 7.6867742691022780
3.7495259988371430 5.0805678136189005 7.6865015080259775
2.4960438568870216 7.2530455839970260 7.6879790193239161
1.2412168260395435 9.4247987955226176 7.6851959990242680
-0.0145396878767615 11.5986167602370518 7.6868662767797362
8.7676731408462096 0.7340434465054173 7.6866416762534335
7.5128611307156419 2.9071463813436513 7.6869023515854611
6.2581232591475757 5.0802162446107095 7.6877666905559989
5.0033800233671331 7.2527886476094681 7.6882023240676940
3.7494876885404467 9.4240061877297432 7.6879497869172813
2.4951496376299418 11.5983927207954860 7.6873969294266500
11.2769968649284529 0.7337745920354546 7.6870761475290736
10.0221644625019710 2.9068457835724839 7.6870947073753273
8.7672639480234924 5.0797918579072769 7.6872524447571591
7.5123186287078951 7.2524741309986656 7.6878230025092558
6.2577185345791548 9.4247351754206008 7.6865593450246150
5.0038576195326190 11.5979643100236114 7.6881993700170250
13.7859904134544404 0.7335961584386572 7.6871845800471057
12.5314232249731994 2.9066266023590739 7.6872830045823575
11.2766043498966937 5.0795249324155440 7.6871392700801575
10.0216873404303719 7.2524251619472144 7.6869960818427696
8.7669654052692927 9.4252189611521100 7.6868642615314604
7.5126891994042078 11.5981619708372659 7.6870141211487670
0.0142000993554194 1.4395901494983869 1.0047451604223123
-1.2375141703604831 3.6149352229549852 1.0049459965144163
-2.4888069407656448 5.7866631092986092 1.0041883999930852
-3.7409439494209407 7.9576195650126760 1.0036810797943785
-4.9995741952245893 10.1302919047023234 1.0036324322756200
-6.2557688602669499 12.3047504594982726 1.0041366616534448
2.5245268653943178 1.4367777338716634 1.0040532098565587
1.2640064413455507 3.6044195860176793 1.0045803325760687
0.0237845849165441 5.7976793681011953 1.0048154898420127
-1.2256726759457108 7.9606063487322674 1.0038731014404489
-2.4927544648354312 10.1302243764188109 1.0038922986272774
-3.7468021104597256 12.3027220362579950 1.0037051551503733
5.0358255222682748 1.4361543288309850 1.0034507112734861
3.7784815417533442 3.6047730703811056 1.0042532028878703
2.5113265256788644 5.7604602051680160 1.0048629120202870
1.2987725648203641 7.9914283057205706 1.0050904172937210
0.0101032739813199 10.1337462314889706 1.0044470853930081
-1.2382775776345387 12.3029790334407920 1.0038056052166637
7.5467915387546531 1.4325322587383145 1.0035085850136778
6.2909369720073300 3.6066388405611862 1.0039103303069978
5.0294059153971853 5.7759089222594806 1.0047907646319449
2.5098037408218876 10.0889441119079191 1.0050709971601244
1.2742693413657691 12.2905101371459633 1.0037766559013825
10.0530324612638839 1.4336594966816196 1.0040766611276264
8.7989140601108051 3.6101418068305349 1.0043598172497337
7.5404499303440531 5.7862553538282029 1.0051487819751010
6.2938985020163747 7.9659831395393992 1.0048480976063257
5.0482253046538563 10.1543452848571576 1.0049093883227014
3.7722144806742608 12.2899537731140640 1.0047931853881396
12.5595192525640673 1.4359067078152072 1.0049265253916735
11.3083811248105466 3.6109124757359612 1.0046019528338248
10.0543228136527052 5.7844849138182912 1.0044439106412200
8.8033762113892209 7.9581340227946926 1.0040879148532238
7.5487545164278442 10.1348394372787904 1.0044136528521208
6.2918225606567075 12.3125389827996372 1.0046489929573306
1.2478716085876149 0.7279274830252230 4.3463498994071106
-0.0067666244412714 2.9007969277818542 4.3467517760265881
-1.2613682634468453 5.0736642781171106 4.3467245347212904
-2.5158159340922386 7.2467116409637402 4.3464478648259499
-3.7704483682752534 9.4196862713214227 4.3463206728937633
-5.0250967755214546 11.5926476002619481 4.3461325044907451
3.7570801883468965 0.7279270407458768 4.3460866183189495
2.5024227299037443 2.9008716278110054 4.3462785244307982
1.2476763701748408 5.0736411125644034 4.3467886044073873
-0.0067519223356109 7.2466121222410971 4.3461440160796574
-1.2611838798674004 9.4196589710965188 4.3462768741652749
-2.5158586894168020 11.5926293084850656 4.3460520125896052
6.2663080335809562 0.7278869065461318 4.3462349397612501
5.0116676485545959 2.9008919096739803 4.3463304708329291
3.7569345039914928 5.0738449395252179 4.3463297649954145
2.5018508330001792 7.2463753503440627 4.3479546385345076
1.2480248127895159 9.4196201233808612 4.3444966517616912
-0.0066098304885808 11.5925704297558543 4.3462375688501371
8.7755417426483735 0.7278679443628100 4.3463741325182212
7.5209425071115765 2.9008025710011900 4.3465504274819260
6.2663119270056189 5.0737901895271555 4.3470130206801629
5.0118156972643959 7.2466764916722672 4.3481883833806689
3.7570925496960825 9.4204459415411268 4.3479408837575111
2.5025832329661255 11.5927624550845021 4.3461062941116344
11.2847476332360497 0.7280435644245804 4.3466892151582988
10.0301906876333558 2.9008081116955493 4.3467332009035502
8.7756041425911029 5.0737277830698693 4.3468554882769093
7.5209047607250623 7.2467313585723234 4.3470600584129278
6.2661680915813758 9.4198137876961230 4.3463715294800451
5.0117140146854728 11.5929211105398853 4.3467910250581898
13.7938722187281702 0.7280016499082338 4.3467540465114922
12.5392917054769004 2.9008379948713214 4.3468447811474018
11.2847654223283858 5.0737215672052276 4.3467704702178525
10.0301492447495981 7.2467206281782426 4.3466366001519665
8.7754338390042719 9.4196971631819100 4.3464224125757651
7.5208297731460521 11.5927020832720569 4.3463206603589031
7.5129424438631887 13.0470554921384227 7.6897888586028387
-1.2691491446634977 2.1823295275129482 7.6900229668998632
12.5314429031570320 4.3552274524292649 7.6899970389278058
11.2768147551429543 6.5281631700907194 7.6896607453190251
10.0222055601384277 8.7011489547547107 7.6894004703629957
8.7675568286242260 10.8741159738228337 7.6892856289596168
2.4945901088261047 0.0094116599418458 7.6893111180093694
1.2400085244035663 2.1824007180154212 7.6897814373313365
-0.0145131688669474 4.3553810962765596 7.6901955596845095
-1.2691702635961888 6.5281812125047320 7.6899172038634696
-2.5237561487639635 8.7011332054062152 7.6897728830113188
-3.7783647781959138 10.8741192250356100 7.6891745722867579
5.0038204168225286 0.0094043775357464 7.6891193199824048
3.7492060723312761 2.1823865541698768 7.6892284399687618
2.4946095065678082 4.3554419378599825 7.6900741924292886
1.2401736851880338 6.5285358959626025 7.6927536833856500
-0.0146087737740084 8.7011265218649800 7.6912520960728585
-1.2691594206422085 10.8741214324645306 7.6898405749361709
7.5130526598925611 0.0094040539276297 7.6896798442497243
6.2584544433263769 2.1823450635925514 7.6892897415518799
5.0038425814797884 4.3552719054997446 7.6891936172008712
3.7492817579305773 6.5281008779243361 7.6859270869547718
2.4941731488814827 8.7014385074771550 7.6851862910985833
1.2400516596802975 10.8741838621704900 7.6911978616468133
10.0222403839437391 0.0094275668663737 7.6898195710132899
8.7676778561116073 2.1823504223801971 7.6895736003204505
7.5130247586142174 4.3553058777132510 7.6896317671680219
6.2583194693899564 6.5282808821483282 7.6905087394842599
5.0039538278945042 8.7011910149269340 7.6859711871443084
3.7490275767778800 10.8738513759336026 7.6926747271369846
5.0037574088190313 13.0469773274501524 7.6901646860521904
11.2768711191986029 2.1823228397962238 7.6899616446208165
10.0222670629364323 4.3552488097694715 7.6897852705339877
8.7675949951312244 6.5282118526223742 7.6896964979681153
7.5130266244365123 8.7011590590917489 7.6892827712695633
6.2582705711179178 10.8740616422904992 7.6901111537595765
2.5253111006545605 8.6816421780770199 1.0055280108753659
3.7189631873534510 7.9925136488229267 1.0078812010877565
