rBN 3-layer slab
1.0
15.0551462173000008 0.0000000000000000 0.0000000000000000
-7.5275736112000002 13.0376828894999992 0.0000000000000000
0.0000000000000000 0.0000169606000000 10.0278787613000002
B N C
107 107 2
Cartesian
1.2519347611784000 2.1688335168787427 0.9734919326726728
0.0019978308200857 4.3513008557952455 0.9823396533070990
-1.2501571603733554 6.5210947566984041 1.0018484557633180
-2.5036377423231047 8.6927248991455492 0.9729467029843449
-3.7643887951574180 10.8649798642382063 0.9799465059794310
-5.0179116539180812 13.0373405047090056 1.0017275977057547
3.7642449995428899 2.1697678839225816 0.9946877361130081
2.5023082593741912 4.3284704119824218 1.0024240897464631
1.2714714777177911 6.5226922763375823 1.0192535272334688
0.0037211660866311 8.7048360847245281 0.9905973780537511
-1.2611165522780903 10.8686559004690064 1.0014766111962932
5.0179726943671534 0.0004840562533643 1.0236455156332613
6.2754557972494904 2.1699655954315440 1.0015718950265016
5.0190831971752488 4.3427045814266263 1.0087094854212590
3.7430659581211279 6.4965464704402160 1.0312527108376419
1.2453151557920110 10.8551493437254276 1.0119599218021653
0.0021531839002037 13.0324980544195341 1.0295972871830135
8.7832540267209520 2.1713330714452659 0.9718318404302198
7.5265959497619299 4.3470649380011732 0.9807603645142320
6.2635822867479680 6.5242098373033865 1.0019318083008688
5.0272491625192162 8.7209428129151796 0.9736922988938324
3.7688837967109379 10.8481473596152824 0.9854487394762411
2.5094665742712809 13.0325522614330005 1.0013546540857419
11.2908945543954147 2.1717403327918161 0.9921116003200793
10.0372430407634710 4.3457168790189087 1.0017603781900424
8.7807588302790975 6.5190899266171938 1.0230616603283906
7.5307947539811400 8.6929838705136842 0.9945820733343450
6.2847790562466823 10.8794810382943030 1.0011258704416812
5.0148393085534586 13.0331663394930075 1.0215125039901487
13.7990273615627785 2.1739956876134792 1.0015666050610359
-2.5083088615797040 4.3470869119175468 1.0112157754912467
-3.7617332302962292 6.5187921122426724 1.0311437820055631
-5.0143896576553875 8.6914254738982262 1.0013828269692908
-6.2697663280918077 10.8660872553342909 1.0086146583441806
0.0023801683309199 0.0042954467072927 1.0296431753386321
-0.0000092749470625 1.4486399179821703 4.3439819069855314
-1.2545588946431527 3.6214892508815781 4.3403585174550177
-2.5092914526990175 5.7941687712810808 4.3538059205788429
-3.7641638998729809 7.9673234669231050 4.3437120000809601
-5.0189063931178204 10.1403931843323178 4.3410833598075262
-6.2732637654655736 12.3132298310581483 4.3548015761717158
2.5089681612899097 1.4488356491592771 4.3330183646963167
1.2545541402816769 3.6216467828643886 4.3304675716093808
0.0001057554155275 5.7938817829872846 4.3450899116137887
-1.2547127749366476 7.9670942132615323 4.3346353149239443
-2.5095999764442123 10.1404473885139801 4.3309483753481350
-3.7642248309231210 12.3133861179725272 4.3441843217802187
5.0182464526087740 1.4491551688302995 4.3467987374441908
3.7638416342312331 3.6223777495839808 4.3433062776223466
2.5095453268175976 5.7948674226108494 4.3584774180968395
1.2557853457772812 7.9666842801731113 4.3489732203505449
0.0003549150353364 10.1403297721037333 4.3445482402853166
-1.2547110535799204 12.3135321102794073 4.3577743077460713
7.5274718479646960 1.4490108665411465 4.3441706072273476
6.2728049551316341 3.6222824440166521 4.3406794144071181
5.0182338706517129 5.7953088942424715 4.3536184890788165
3.7640071331972051 7.9673290841917286 4.3367112983974136
2.5105091425221078 10.1399641531602960 4.3411270219954394
1.2548719845367640 12.3134225546209723 4.3541965918947847
10.0368206594010392 1.4487820950392321 4.3343912642154345
8.7819386877900811 3.6218388285521752 4.3309687717107517
7.5270803633274852 5.7945887792827522 4.3438341932045734
6.2720819505981069 7.9671309209713383 4.3322966050146876
5.0181193173083907 10.1399917094840522 4.3300517698574943
3.7641845239013549 12.3132978301602094 4.3437195242213953
12.5461604498950674 1.4487199430147986 4.3478025246233303
11.2913926440194068 3.6216807329011633 4.3439723612953038
10.0365385666970788 5.7944129273935578 4.3569647891527410
8.7816108149363270 7.9673097809646682 4.3467365253366346
7.5270457148923402 10.1401887359700886 4.3437339116651330
6.2730233220086795 12.3132312106768396 4.3578857735542567
1.2544296232539605 0.7243096383037929 7.6868081458729494
0.0000798032916338 2.8973643403522242 7.6690577858931031
-1.2545778570864583 5.0699042340688072 7.6804075373033287
-2.5094682873238101 7.2428218745063049 7.6863294884368578
-3.7642972733093516 9.4160712609176134 7.6702239408432735
-5.0188313900368149 11.5889740839900419 7.6816209863813949
3.7635311093641115 0.7245930964686564 7.6923423031930005
2.5092274338992762 2.8977298517970165 7.6755659216622547
1.2550001169737466 5.0703440771737531 7.6884689086279323
0.0003213643506728 7.2426244364083363 7.6931706187901936
-1.2547505346944066 9.4160190674915469 7.6756201018059214
-2.5095564665414614 11.5891642753379465 7.6869796582089451
6.2728816568029426 0.7247396950167864 7.7032346344432385
5.0183590233502047 2.8980518410463825 7.6868051032127962
3.7641661797933059 5.0711957700403989 7.6983118145802178
2.5107112718455444 7.2437365506518443 7.7046521048010330
1.2559187364369973 9.4154777469532380 7.6841754747692752
0.0001554807284209 11.5891986302267611 7.6980090056836783
8.7822280937921420 0.7245682357365579 7.6865823718933388
7.5273703793783922 2.8977974629877599 7.6695516464103388
6.2726657047738401 5.0707535496610312 7.6821923183483189
5.0179603008801053 7.2433629113247004 7.6874590705717329
3.7640528039940242 9.4146958279588713 7.6692306658895069
2.5097408697920383 11.5889222822574887 7.6808382658018806
11.2915491240764556 0.7243195647738705 7.6932309413494382
10.0366757114685008 2.8975055167197210 7.6757843770489389
8.7817938849731298 5.0703186466905796 7.6872403998847680
7.5268777495805725 7.2430209739672256 7.6930966557019307
6.2722608339941068 9.4153971935128205 7.6740086308371795
5.0184169477737441 11.5884969299617087 7.6874631655411703
13.8006512353311432 0.7242088646638210 7.7044924888305921
12.5460668208307187 2.8973518439923152 7.6867543532902829
11.2912399543602113 5.0701145327529087 7.6978120342572662
10.0363417072920260 7.2430175940547734 7.7040592587068408
8.7816016341230512 9.4159466332680957 7.6866900936282789
7.5273340258014878 11.5887497439135476 7.6981715419242560
-0.0018836428234665 1.4497652007876065 1.0039392585107212
-1.2535867114991137 3.6251966204431612 0.9918604849145737
-2.5048636619050559 5.7968237336078623 1.0316214113980766
-3.7568688683006806 7.9678642417090106 1.0044637375187935
-5.0155669624551136 10.1405340185016097 0.9875686614424493
-6.2717883663481837 12.3148812121085829 1.0293689298811080
2.5084135134989851 1.4469059398787603 0.9788983381720039
1.2478747006983297 3.6145076618888692 0.9638519793199799
0.0077481822120893 5.8077476825926997 1.0026813168794875
-1.2415972998036098 7.9708016245541673 0.9787598140287520
-2.5088052450148517 10.1404569630273187 0.9612662878389370
-3.7628514981999404 12.3128708853745881 1.0045319603396758
5.0198055054327355 1.4464156516540572 1.0207300731636599
3.7624253224258926 3.6149774052107539 1.0046538600848125
2.4953410990195315 5.7705520294929169 1.0459102184441771
1.2827711245334099 8.0015920740776636 1.0120804621668771
-0.0058893988220390 10.1440001269420232 1.0037364374755304
-1.2542708392370732 12.3131637694198712 1.0471836662576512
7.5308025448576448 1.4426230624040781 1.0031079783734855
6.2749487435918558 3.6167852745141293 0.9881023155483247
5.0134150376821385 5.7859491091791666 1.0282522063863062
2.4938680673814844 10.0989550338357237 0.9972769429739460
1.2583147539582547 12.3004823854073138 1.0285813925011973
10.0369869482447100 1.4437082875502212 0.9765413937330899
8.7828557095673894 3.6202987887223337 0.9624528175411913
7.5243989228245569 5.7963558647324174 1.0047067104665428
6.2779464395688880 7.9761384323441860 0.9798628259969162
5.0322406113095228 10.1644774693389408 0.9631372481872204
3.7562318752790937 12.2999626417266867 1.0067017434065875
12.5435170033999022 1.4460651366509922 1.0166130762943373
11.2923723734741870 3.6211182365002150 1.0042480098983217
10.0383657339177308 5.7946463786315148 1.0461425071727628
8.7874250209968707 7.9683222541705350 1.0202315571062073
7.5328157664147959 10.1451009540764758 1.0037155273646756
6.2759032531615793 12.3226646275256488 1.0447410421688741
1.2544948137495429 0.7243145819938043 4.3461826530572134
-0.0001320389870817 2.8972594668903877 4.3300327033381594
-1.2547220108934507 5.0700487792789879 4.3493019601937055
-2.5091764606709006 7.2430881987896054 4.3459732078893190
-3.7638181336010259 9.4161327586742889 4.3305066345043448
-5.0184705306241861 11.5890134193058767 4.3503767865196910
3.7636876491794395 0.7243006177997610 4.3423995429734257
2.5090403151964447 2.8973284146028031 4.3262168295082324
1.2543098244495114 5.0700252043547556 4.3476609599782314
-0.0000907312427095 7.2430071835270740 4.3436231549870019
-1.2545653384932758 9.4161078320034122 4.3271560763347283
-2.5092449304586424 11.5889895112928158 4.3463770506684059
6.2729857066153984 0.7242956600419314 4.3618652054610969
5.0183448993827966 2.8973851545362228 4.3458227474609208
3.7636263724244947 5.0702766214680333 4.3657227818534947
2.5085837140225662 7.2428393329531611 4.3636332601750079
1.2547305433489175 9.4160988672930834 4.3440207665353689
0.0000887798776676 11.5889611599538576 4.3648521315191644
8.7821608100025177 0.7242436769422842 4.3460517739570381
7.5275487483834516 2.8972515516083499 4.3310166987817409
6.2729241927089570 5.0701742155543794 4.3503774195326237
5.0184446091719872 7.2431062523357941 4.3474762979355974
3.7637674104787240 9.4169566496745230 4.3320306731862486
2.5092107260876015 11.5891558683697991 4.3480977762880464
11.2913597841290017 0.7244389984745154 4.3434442610319843
10.0367899809134737 2.8972558746947161 4.3280061445947524
8.7822054760976815 5.0700897086037964 4.3466157141834652
7.5275215092330301 7.2431160344463539 4.3429572261340104
6.2728144944776325 9.4162863063888231 4.3263100002804817
5.0183384425723894 11.5893066870832318 4.3457208951144235
13.8005554232751280 0.7244328720281814 4.3625115770090792
12.5459743753049633 2.8973309489218355 4.3461966964046415
11.2914498570071036 5.0701230768806322 4.3645507473359633
10.0368379783055879 7.2431310128556161 4.3614390315830409
8.7821323722618665 9.4161873347466898 4.3464395779024319
7.5275283882516648 11.5891203352084435 4.3660586356289750
7.5274993694436256 13.0376374929793766 7.7122633394658191
-1.2545814147906205 2.1729990257521377 7.6893927416658414
12.5459805231851416 4.3458906343622372 7.6908226489381022
11.2913608373203864 6.5187495050191702 7.7111800687516316
10.0367515511864429 8.6918015856094755 7.6898369322052949
8.7821010208984109 10.8647782952204501 7.6915883302961507
2.5090810043033951 -0.0000391705330091 7.6897524474171686
1.2545099648204783 2.1730223165836171 7.6666956433996774
-0.0000034032669912 4.3460130000141088 7.6689935610981399
-1.2546514648863480 6.5187234062875818 7.6894227400084247
-2.5092484809726820 8.6917473318077612 7.6678369787293530
-3.7638608219926066 10.8647360425208905 7.6701790099083702
5.0183695358434166 -0.0000085021690121 7.7094661068577723
3.7637412051334240 2.1730442413571018 7.6870809223438918
2.5091611330899330 4.3460971389204790 7.6909448704270362
1.2547716943166098 6.5191416948508998 7.7135493092956446
-0.0000513420146953 8.6917755343384790 7.6889000785651138
-1.2545760648188216 10.8647788769814948 7.6901292935684760
7.5276199019833143 -0.0000147404538367 7.7115205483402889
6.2729745454775339 2.1729943432769105 7.6886638305601913
5.0183819935520102 4.3459443536929827 7.6919043539843308
3.7638424837265005 6.5187317688559450 7.7071261917293787
2.5087253704551387 8.6920698095173030 7.6832865691803383
1.2546588406099322 10.8648139225256397 7.6925052363395805
10.0367607475792493 -0.0000161753455866 7.6898571985831587
8.7821378054493788 2.1729724905251877 7.6674617060648362
7.5275145406933417 4.3459226919449359 7.6694440168847047
6.2728470949820077 6.5188438892469103 7.6902337573140080
5.0184789171769726 8.6917974688782493 7.6632790211898607
3.7635760231655353 10.8644840439677814 7.6708984020578734
5.0183306016536839 13.0375851749614178 7.7109654827656611
11.2914054595540296 2.1729987706527880 7.6882533941549065
10.0368010498332083 4.3459088665832883 7.6896068881783721
8.7821646753193665 6.5187930571686756 7.7099362096470889
7.5275729425882920 8.6918191946678860 7.6861287486503818
6.2728373284424679 10.8646972184000532 7.6888003191917216
2.5093726990847132 8.6917660368954923 1.0048613238281174
3.7030632489750781 8.0026129076093131 1.0065714437792017
