rBN 3-layer slab
1.0
15.0551462173000008 0.0000000000000000 0.0000000000000000
-7.5275736112000002 13.0376828894999992 0.0000000000000000
0.0000000000000000 0.0000169606000000 10.0278787613000002
B N C
107 107 2
Cartesian
1.2621714696454815 2.1845067413422106 1.0022918060011161
0.0121954740895200 4.3669678339665774 1.0011806739826050
-1.2400005631341096 6.5369513133095891 0.9994083369352006
-2.4935556722473984 8.7085033193175327 0.9990884807540770
-3.7542020699863823 10.8808301697871137 1.0003379543221749
-5.0077057402873102 13.0532368521811648 1.0017428655233356
3.7744465157085005 2.1854123676217938 1.0037464213858485
2.5124747000670742 4.3441284957360207 1.0025806273126372
1.2815428520500993 6.5384148605924368 1.0014940213378341
0.0137654756363379 8.7206347173696450 1.0002108318697727
-1.2509700485393305 10.8844475159185325 1.0014173013452441
5.0281479455781177 0.0163360379306801 1.0030939275532884
6.2856493956594832 2.1856211900854539 1.0045618500049180
5.0292157907910795 4.3583072569943608 1.0036043352598851
3.7531236786703928 6.5122175472420230 1.0028320660606840
1.2555167602428163 10.8708757729244141 1.0023609720635203
0.0123139905516129 13.0482434764492297 1.0037454830220385
8.7934882460366470 2.1870891575713367 1.0040289744446027
7.5368420660330999 4.3628793699551141 1.0032884373779625
6.2737256965616117 6.5400112895003799 1.0019150812413957
5.0373125981770608 8.7366099665936421 1.0023363003617545
3.7789990121177262 10.8638503284284216 1.0028046079444726
2.5196559885044709 13.0484016044533604 1.0036622464990859
11.3010236875337799 2.1874876558574323 1.0027834054693123
10.0473862281145294 4.3615179976344223 1.0017614585629888
8.7908601860387279 6.5349887794613046 1.0004765099925912
7.5407651223917336 8.7086680057351753 0.9998118927563823
6.2947930922198525 10.8952267094461916 1.0007310370909890
5.0248436095404792 13.0489492574551811 1.0023646540750835
13.8090978589667497 2.1896583311553615 1.0017460689232089
-2.4981999656851595 4.3628479614967164 1.0006314002965635
-3.7516775188059999 6.5346422872272072 0.9992948249543555
-5.0043929848421431 8.7071938661443227 0.9988572087068961
-6.2597771068594312 10.8818528016029621 0.9997537896853379
0.0123760122503359 0.0201060159624588 1.0011816499591570
-0.0011555093846136 1.4490626760341470 4.3441467557433384
-1.2557105750271782 3.6218536695665833 4.3436912360978530
-2.5104426362432299 5.7947202833716673 4.3428548710150476
-3.7653149597517883 7.9677804638112217 4.3424157737629780
-5.0200527752069624 10.1407655493940485 4.3427144059999598
-6.2744114895861918 12.3137721289003323 4.3435183008156288
2.5079229958153504 1.4493171112213075 4.3443987931574854
1.2535003290367384 3.6220569442233259 4.3440643501577973
-0.0009655427301547 5.7944878568685159 4.3432207371619791
-1.2557603302405504 7.9675825290527529 4.3431115957498321
-2.5106454845928208 10.1408714692400750 4.3434969951404696
-3.7652693945834312 12.3139882144627641 4.3440570820528288
5.0170542136192076 1.4495513467096068 4.3453704010914729
3.7626439531976739 3.6226953957732104 4.3444281071806357
2.5083481659769977 5.7953584458327958 4.3439455783680376
1.2545626304888906 7.9670635047076672 4.3444536519990917
-0.0008427677944080 10.1406720744028398 4.3445984475975425
-1.2559107424369438 12.3140462724208017 4.3452541270541634
7.5263548464450416 1.4494471477473030 4.3458844344419454
6.2716875870602902 3.6226441709861059 4.3451211340224036
5.0171054679165188 5.7958394085680718 4.3433672952839935
3.7629015891511530 7.9678174097320849 4.3367621667042746
2.5093600750453224 10.1403034664672802 4.3455696296354329
1.2537290518368027 12.3139683566565292 4.3457599352846756
10.0357842989759831 1.4492635581827851 4.3454772767158731
8.7809062406581315 3.6222620366081641 4.3448866552406642
7.5260391906378716 5.7951932345076722 4.3437372987955296
6.2710188968059342 7.9676194766472976 4.3426114241855451
5.0170555229200140 10.1404054141273257 4.3443996537377521
3.7631567443616909 12.3138788169738440 4.3451771420758760
12.5449663611514239 1.4491073645240304 4.3446226248170667
11.2901959381602524 3.6220166482327776 4.3441153835447688
10.0353355111732174 5.7949366633756449 4.3431689017999018
8.7803971792350257 7.9677260384632573 4.3425264360864615
7.5258318302599694 10.1405145471178564 4.3427793461614659
6.2718177536222512 12.3137305192488284 4.3442189464596037
1.2447979992623492 0.7080634352535112 7.6869328316118208
-0.0095850198199490 2.8809415294931853 7.6866326355892856
-1.2642079110492064 5.0536516751417970 7.6854640031151833
-2.5190705156014506 7.2266212538811097 7.6846995508664993
-3.7738845875256120 9.3997730912081234 7.6851462007638185
-5.0284221260484800 11.5728045034883937 7.6860862580448348
3.7539487101675184 0.7084041298997815 7.6876428701327582
2.4996084507203933 2.8813358700074594 7.6874864463976573
1.2453500019453794 5.0540286088007109 7.6870439253543452
-0.0093286102887052 7.2263460141333749 7.6854380053008642
-1.2643566629296810 9.3996632008526504 7.6858701981576232
-2.5191463777545304 11.5729812004802124 7.6867401476833903
6.2631852112241804 0.7084950966207405 7.6885504113847221
5.0086707781191562 2.8816794281702571 7.6884777808903717
3.7544272773054912 5.0548568719625759 7.6867777344362587
2.5009013125947450 7.2273030595085785 7.6864151206509135
1.2461729726352182 9.3990295691439947 7.6842407425469981
-0.0095773025648725 11.5729149854982190 7.6878197205259200
8.7726194939273245 0.7083620257895350 7.6884915181476563
7.5177983912364548 2.8814826294723548 7.6886676579284865
6.2630796524224390 5.0545787959754405 7.6883364027048895
5.0083211778312524 7.2271114203929150 7.6874718793939945
3.7543582019620398 9.3982141152488730 7.6873986226152375
2.5001020653108541 11.5726478171522533 7.6881973674652100
11.2819103965116803 0.7080722295969152 7.6879319867686213
10.0270890662879566 2.8811950582606709 7.6878590207327120
8.7721997031617818 5.0541386514754763 7.6871162392989918
7.5172865216917257 7.2268529030583730 7.6867319748378424
6.2626173774526865 9.3990273289730304 7.6855352098705954
5.0087528562339365 11.5722159698186680 7.6883110000113746
13.7908849976332828 0.7078542940082051 7.6871203362438383
12.5363279900121380 2.8809266925377224 7.6869215333375989
11.2815307671678902 5.0538827132763204 7.6860017931404307
10.0266305331049423 7.2267934093819486 7.6852992155558075
8.7719036463068356 9.3995925956993442 7.6853551219619041
7.5175891718828751 11.5724547701479761 7.6863565364500683
0.0082461635149381 1.4655299586247916 1.0043150016093680
-1.2434700914261774 3.6408981612345710 1.0035672274130394
-2.4947274039203391 5.8126790580059771 1.0018255539119238
-3.7468625400400080 7.9836894091734720 1.0011620896494922
-5.0054791509418157 10.1563579464771916 1.0017166547454803
-6.2616831172907395 12.3307676588985640 1.0031194072302505
2.5186614307176152 1.4627103966241184 1.0054235376295610
1.2580952286235936 3.6301387816224322 1.0046574116751017
0.0178389730992719 5.8234445419577225 1.0030591643384443
-1.2315625614832877 7.9866022137009081 1.0015453371318956
-2.4986172181447559 10.1562776759466811 1.0027394763141717
-3.7526436889549619 12.3287697247951140 1.0042744410480668
5.0300055250467919 1.4621688538969517 1.0068455371665619
3.7725712005759742 3.6305810185606679 1.0062410460191218
2.5054051213001158 5.7862617950287856 1.0046285935195052
1.2927917546805487 8.0172078044723722 1.0038198834714283
0.0042701902167867 10.1598148001810422 1.0037731760924451
-1.2441197013639400 12.3290063395561678 1.0055811681919178
7.5410397178567070 1.4583278481715978 1.0071097464941219
6.2851657409311281 3.6325118255846367 1.0069062107886502
5.0235313076088914 5.8015881517216963 1.0049866203601865
2.5039147244272577 10.1145674177700755 1.0054603545521192
1.2685145321102043 12.3162103045366766 1.0059083861408371
10.0471846043893382 1.4595342576041013 1.0064767108251527
8.7930875952218095 3.6360746409871227 1.0057799447471465
7.5345850128216512 5.8122352935975092 1.0045305521280048
6.2879481189013910 7.9918332941146897 1.0032373184394365
5.0423416138337931 10.1801669582944871 1.0040767895594656
3.7663112631498854 12.3156721564061371 1.0056734845121296
12.5535961388875315 1.4617945830381929 1.0050021417019388
11.3024996053283804 3.6368895315915450 1.0043034891191240
10.0484382971210486 5.8105097420077669 1.0028411818082941
8.7974686152275030 7.9841518645631453 1.0016762274030557
7.5427886487229783 10.1607976996722407 1.0022168301790657
6.2858624674062655 12.3384433433475174 1.0037195030280122
1.2533751333458452 0.7247802384691355 4.3463227614641040
-0.0012607726850525 2.8976530180615279 4.3461984175097719
-1.2558616030087648 5.0705258130679960 4.3451967268757947
-2.5103080578876242 7.2435705593077095 4.3444319061537602
-3.7649423235183259 9.4165445931294318 4.3447582977915475
-5.0195919100247917 11.5895020884250393 4.3455819963673390
3.7625867445974341 0.7247754807493482 4.3470598942641514
2.5079318326770750 2.8977244906980100 4.3467228931531743
1.2531895698036997 5.0705064656480578 4.3459539567271577
-0.0012345270943064 7.2434780400090961 4.3445980488834515
-1.2556707842481676 9.4165145521760802 4.3451839238643952
-2.5103509562917679 11.5894808809306387 4.3462154460368714
6.2718206958633145 0.7247308592776524 4.3479459185261895
5.0171788984063665 2.8977425037258446 4.3477611319642868
3.7624506819800820 5.0707058130584857 4.3464481062544866
2.5073859436811619 7.2432456619203904 4.3473277740217258
1.2535535324454741 9.4164707392949349 4.3440850859662739
-0.0010918088479217 11.5894129539929072 4.3469413302001874
8.7810591331473038 0.7247085293896385 4.3479032180917239
7.5264517358120253 2.8976519310683875 4.3479868739226335
6.2718192391098606 5.0706544116372960 4.3473159546009095
5.0173180875805530 7.2435569888660334 4.3475767885875793
3.7626332396485269 9.4173256521639921 4.3483202902847786
2.5081057347088267 11.5896056777662260 4.3467971325776933
11.2902597079969276 0.7248923632092938 4.3473606476225042
10.0356962179006537 2.8976606465807984 4.3472682770705964
8.7811060380457739 5.0705883513827494 4.3465046753715768
7.5264087924301917 7.2436000715741518 4.3459246373126792
6.2716893493327985 9.4166834837521716 4.3456359150536112
5.0172316843722946 11.5897800635149881 4.3469254599365463
13.7993790818592394 0.7248542164103980 4.3465882865505936
12.5447964983327989 2.8976931109584001 4.3463866457059819
11.2902662211546350 5.0705811865086394 4.3455404945378211
10.0356518381740347 7.2435836386569665 4.3448458716522822
8.7809427047140929 9.4165588247366578 4.3448786412009488
7.5263402909034518 11.5895606099422306 4.3456617327677396
7.5178323675861503 13.0214058234143817 7.6895242262164043
-1.2642736726772519 2.1566532448156543 7.6896598831115348
12.5363285983704547 4.3296138380635227 7.6888063441754673
11.2817355562647386 6.5026101666681395 7.6878085669443266
10.0271368813310389 8.6755943156858848 7.6875645694868764
8.7724867643472155 10.8485688844748331 7.6882155691169576
2.4995223582046031 -0.0161619778327077 7.6896115194328747
1.2449012828681041 2.1567454318013493 7.6898191325426568
-0.0096306516194396 4.3296900681762462 7.6889132195321652
-1.2642576840955613 6.5025152623365630 7.6877159253254934
-2.5188206909331008 8.6755292818007330 7.6880429272987705
-3.7734187040868084 10.8485552423657801 7.6885762509228739
5.0087648417434520 -0.0161667243091863 7.6906026420933777
3.7541384400815039 2.1568060547194543 7.6906237679003464
2.4995119991240951 4.3297670767389684 7.6900415605558150
1.2450553778851459 6.5027948193785567 7.6907145598164020
-0.0096925046252093 8.6754558562852555 7.6897572739278068
-1.2642162909930874 10.8485069369964346 7.6900220360466172
7.5179836728032212 -0.0162075210022034 7.6916877051571557
6.2633799452597669 2.1567719930199480 7.6915657929418746
5.0087675397671925 4.3297173352576737 7.6903516811581181
3.7541751659561884 6.5024756136758866 7.6855926165166615
2.4990277119736430 8.6756986392593483 7.6834321357418771
1.2449817972707642 10.8485226338159251 7.6916867149945762
10.0271554825541767 -0.0162265663722249 7.6912560679848978
8.7725942429544350 2.1567733350329497 7.6913492639844652
7.5179514427365630 4.3297068220647690 7.6905544717461360
6.2632734883203574 6.5027000100602219 7.6900447658677109
5.0088658779078168 8.6755301494797461 7.6849333614525728
3.7539214583986751 10.8481309320797425 7.6930273089744245
5.0086368989778851 13.0213161312847436 7.6905571852911887
11.2817544590704291 2.1567160997860806 7.6904850973986028
10.0271827082607139 4.3296791962316732 7.6896376174728189
8.7725348399801426 6.5026261801877645 7.6885436083815870
7.5179597671481133 8.6756037354734676 7.6878182724677719
6.2631669668847705 10.8484129806052643 7.6894669445772807
2.5193822035218223 8.7073436582949597 1.0049584127840565
3.7130717434510450 8.0181976188314170 1.0068793180446451
