rBN 3-layer slab
1.0
15.0551462173000008 0.0000000000000000 0.0000000000000000
-7.5275736112000002 13.0376828894999992 0.0000000000000000
0.0000000000000000 0.0000169606000000 10.0278787613000002
B N C
107 107 2
Cartesian
1.2520614159435790 2.1688308952011837 1.0104799408429666
0.0020839080928652 4.3512468806932789 1.0133682219201714
-1.2500216184828432 6.5211555859045447 0.9943433229580335
-2.5036456371534093 8.6926211121591166 0.9894731845730630
-3.7644896392190028 10.8648840059863439 0.9999470240125062
-5.0178546356110338 13.0374352824012476 1.0014951403505605
3.7643113442239966 2.1695971192672854 0.9996914027398960
2.5023058592461518 4.3284047009126265 1.0083674883808493
1.2714614321387554 6.5227769262760438 1.0041861126249940
0.0037237404159114 8.7048094694121225 0.9932860499625057
-1.2612040261015642 10.8685022998890588 1.0014558690431412
5.0179422944926957 0.0003441204639841 1.0032231557327187
6.2753956399411948 2.1697625865258336 0.9943856958552657
5.0189990785017713 4.3425552880728926 0.9894491140767044
3.7429588181728697 6.4965551048054628 1.0004311920446269
1.2452927452754841 10.8551405702254335 1.0093500862152032
0.0020677368360621 13.0324434568730201 1.0134446347368404
8.7832056594565771 2.1713461887748164 1.0037743246833581
7.5266133011636507 4.3470599783243138 0.9930839688029207
6.2635639918205239 6.5241863184492601 1.0019372752224724
5.0273025612622098 8.7208570033172261 1.0046570277661402
3.7689620392463885 10.8481830559544132 1.0001261243600361
2.5094504249666385 13.0327015692992507 1.0088051696892006
11.2907735541439127 2.1716932178576194 1.0006912693153895
10.0372371411754155 4.3457114642478354 1.0015129020917790
8.7807398905086256 6.5191040667029654 1.0105138389538726
7.5307019257355181 8.6928357042967601 1.0140614602476765
6.2847251845975842 10.8794500868107082 0.9950405559740054
5.0147489454455823 13.0332166386691952 0.9903628731531695
13.7989393391408530 2.1738395961752568 1.0018296673022966
-2.5082891902745170 4.3469604868149370 1.0025794136953992
-3.7616999451397239 6.5187565511952554 0.9993502069973705
-5.0145358123994201 8.6912694154214769 1.0090045002777699
-6.2699407602442392 10.8660590673268143 1.0036120169815899
0.0023204139538154 0.0044033603996443 0.9929488965272613
-0.0000024597341881 1.4486516897535588 4.3441666802521146
-1.2545673795624168 3.6213424421086335 4.3502952289380810
-2.5092309695398152 5.7942266957358299 4.3408844549908663
-3.7641609649885188 7.9673209983097610 4.3415140540096653
-5.0189925780623232 10.1403445898658831 4.3473299229327020
-6.2732820909091167 12.3134129015602571 4.3404497882571524
2.5091346852083087 1.4489094317127365 4.3471787194526810
1.2546523903769864 3.6216293974182947 4.3570172594957430
0.0001754896451433 5.7940533665507781 4.3471759366200891
-1.2546103266743232 7.9671495829943959 4.3319731026734853
-2.5095701456401809 10.1403867305310698 4.3384249962886328
-3.7641464494183352 12.3135214620326074 4.3438783423864260
5.0182495103245675 1.4490537256669291 4.3405820295266935
3.7637834742256331 3.6222439758803451 4.3411060275135691
2.5094147712517501 5.7949457816409842 4.3478715522878515
1.2557097310237739 7.9666958786497561 4.3418896963360929
0.0003123399240217 10.1402567726170929 4.3446613534037821
-1.2547785611959710 12.3135295736286707 4.3503585838432786
7.5274702594394656 1.4490114393711300 4.3467008134552385
6.2728168967031790 3.6222058692789805 4.3312037303810067
5.0181591827673762 5.7953389900916923 4.3371909722509265
3.7639988489692984 7.9673128023971644 4.3367401587423791
2.5105595546350048 10.1399037774797716 4.3480905913493251
1.2548690539463823 12.3135388989821131 4.3569943677313558
10.0368384241704813 1.4488589135934049 4.3472905629463581
8.7820297514727717 3.6219027963731918 4.3404786495808212
7.5271789458549225 5.7947593812828559 4.3436862590198189
6.2721448155728634 7.9670792894860991 4.3488866555281556
5.0182533693232747 10.1399181626691597 4.3405340600477684
3.7642987232901857 12.3134422067417635 4.3413222697480363
12.5460373566594807 1.4486363779140639 4.3381003307017876
11.2913239620108268 3.6215607575457058 4.3439246082931815
10.0365498430895652 5.7945244876848383 4.3471539346599695
8.7815402359630745 7.9672789761434313 4.3563996275344499
7.5269605237610664 10.1400706476837374 4.3461256706894531
6.2729608790301308 12.3133107116579907 4.3313681733871672
1.2545165587550973 0.7244590067910506 7.6868170345142337
0.0001272422778901 2.8972878409038323 7.6978275472517677
-1.2545144304307176 5.0699238866807033 7.6895179416966055
-2.5093985325539809 7.2428715714166128 7.6754076463193908
-3.7643234912925685 9.4160084598575349 7.6841373031327409
-5.0188386844597259 11.5890952331753514 7.6870546831138089
3.7636411688583107 0.7246436476869665 7.6863580124949511
2.5093307926456454 2.8976958735268155 7.6945809479166520
1.2550176772170241 5.0704365460944576 7.6988292377235918
0.0003425626670181 7.2427378018677109 7.6789857046570082
-1.2547311148902069 9.4159535944436801 7.6760595677600660
-2.5095521974163808 11.5891693536569989 7.6867436772512905
6.2728433878523902 0.7246854115109506 7.6895884742775591
5.0183364362391050 2.8979053581109495 7.6756893557782870
3.7640359267898207 5.0711804731573125 7.6834039811110184
2.5105831831807435 7.2437377355278842 7.6871286678977029
1.2559085788040583 9.4154551730103435 7.6842208587571204
0.0000926912226311 11.5891833028467541 7.6978603950635511
8.7822367322230246 0.7246535078192549 7.6977874062951717
7.5274144574819308 2.8977790598183719 7.6789910104736201
6.2726786271039741 5.0707991480041983 7.6767031426730341
5.0179336451217162 7.2433249107795881 7.6875550402018611
3.7641209141568939 9.4145912411813768 7.6866219866750933
2.5098335147387885 11.5889998265492054 7.6947316829280030
11.2915336199765193 0.7243852682335500 7.6839370296293428
10.0366805810585049 2.8974954529235593 7.6869637436662419
8.7818674024139227 5.0704533494225883 7.6869106708894614
7.5269049721218133 7.2430569908622031 7.6984762321148237
6.2723139740307694 9.4152823623668631 7.6890861855618784
5.0184942499726590 11.5885658533551652 7.6766917789959157
13.8005623178638164 0.7242165100973821 7.6761002336054087
12.5459657016031940 2.8971812588790882 7.6868973508729290
11.2912249744280668 5.0701190452038993 7.6864443941739058
10.0363012459581462 7.2430478169813970 7.6947932540719197
8.7814876747756383 9.4158551601886771 7.6981666750690074
7.5272577801911114 11.5888301515685388 7.6792423277836495
-0.0018707884719232 1.4497839187128239 1.0043600094737144
-1.2535634729557752 3.6250275194895005 1.0122722473105150
-2.5047314286700049 5.7967974298130356 0.9985902245004042
-3.7569075603174675 7.9677861712198563 0.9997855583289393
-5.0157631882131808 10.1404342698331114 1.0090813996107195
-6.2718347573637923 12.3149890525616197 0.9994709890178104
2.5085334055159971 1.4469152955951308 1.0086858012527535
1.2479767167110869 3.6144856697507866 1.0217087285311606
0.0078055481354375 5.8077821297842984 1.0083963658372472
-1.2415487207423110 7.9708051486292764 0.9869567527524759
-2.5088948145359211 10.1403267900439129 0.9952212328340255
-3.7628858894198833 12.3128081696029152 1.0040099277661063
5.0198212156986077 1.4461901273514439 0.9992823705011943
3.7623994927782207 3.6148151422651531 0.9995834085110820
2.4952479538514893 5.7705683103409458 1.0082323352986660
1.2828209202413410 8.0016454830174766 1.0015419685253368
-0.0059287437978305 10.1439297364228374 1.0038326992504492
-1.2543367736775866 12.3130186513940405 1.0131277738795954
7.5307552734267382 1.4425542691669930 1.0084915788309678
6.2749195693333215 3.6166530776136150 0.9863260890671414
5.0133139522552828 5.7858637447508459 0.9956582467213348
2.4938913007217622 10.0990243213042206 1.0076381887135772
1.2582935400990825 12.3005289969042373 1.0206434626526990
10.0368965530030181 1.4438101125917522 1.0095931656268999
8.7828638109949324 3.6203287876946466 0.9999650341705266
7.5244003563443389 5.7963668125344050 1.0044722159131205
6.2779134245703139 7.9760095974115188 1.0126570954938205
5.0323011821604950 10.1644077986301422 1.0004944470040569
3.7562326469879395 12.3000311950469303 1.0004885346045214
12.5433583652455169 1.4460013845100435 0.9964504101310254
11.2923324199241364 3.6210519298761623 1.0040868692159437
10.0383827037041993 5.7946699293793165 1.0082152547192376
8.7873202800446073 7.9682309059062941 1.0223212575035534
7.5326909520497427 10.1449992727235418 1.0089202172370118
6.2758352032741804 12.3227455295991355 0.9868379828334772
1.2545636719267770 0.7244341983533417 4.3461841988866308
-0.0000973277601325 2.8972124551973097 4.3582947439289921
-1.2546736650109027 5.0700296405809135 4.3498399004169341
-2.5091172022206916 7.2431106048842180 4.3345594491322794
-3.7638737121117929 9.4161004462393354 4.3430544704735166
-5.0185032257228404 11.5891168560740070 4.3461398765121650
3.7637938560641100 0.7243224212389544 4.3460812928216823
2.5091173092791279 2.8973151283671821 4.3546772161150731
1.2542985092050749 5.0700971802803334 4.3584235936735283
-0.0000810354093969 7.2430976369000000 4.3376906176205008
-1.2545449545710241 9.4160931570218267 4.3344330156956641
-2.5092508156051778 11.5889798615597162 4.3461657743614639
6.2729874640419183 0.7242317838306207 4.3496082717476146
5.0183512267029151 2.8972789897783615 4.3345872741450959
3.7635071468925991 5.0702556493926156 4.3430260053300156
2.5084692692003037 7.2428413495945456 4.3481458817441139
1.2547506483615813 9.4161327589031352 4.3440577494966144
0.0000649812059234 11.5889723343492648 4.3578750650592655
8.7821496060991517 0.7243036320391435 4.3577532880126197
7.5275816106349671 2.8972724821490528 4.3379227319845093
6.2729260684189914 5.0702141366040054 4.3350758513758478
5.0184072446636625 7.2430417306765564 4.3475987620888272
3.7638284154182875 9.4168588046600838 4.3474287468059618
2.5092846898962144 11.5892079977173310 4.3537643383474132
11.2913180991587634 0.7244683354649059 4.3427733531446640
10.0367834720489917 2.8972876351423125 4.3461336705815024
8.7822909380421503 5.0702368193531981 4.3462815004427213
7.5275550766689365 7.2431365637689513 4.3582256677268960
6.2728569191179977 9.4161716553896220 4.3491796152645641
5.0184090783809188 11.5893339971630667 4.3345875731472114
13.8004975044325420 0.7244402961362525 4.3346695224456910
12.5459024430409407 2.8972052135897428 4.3463561705750253
11.2914830558200627 5.0701343059263611 4.3461920261908871
10.0368413816315503 7.2431682033572642 4.3546963775319938
8.7820397529218965 9.4161381360479339 4.3580323461622985
7.5274781649515985 11.5891803224644772 4.3376508440517911
7.5275019257055602 13.0377649424298436 7.6779832476150514
-1.2546197186242154 2.1729375813241774 7.6897743119540776
12.5459909738315645 4.3457954616627443 7.6911477807104847
11.2914038585480707 6.5187912028889876 7.6871949695112960
10.0366873791153282 8.6917984546744780 7.6998518706911785
8.7820368088661702 10.8648129779513152 7.6917472454305678
2.5091599237625228 0.0000957459703355 7.6893546038475877
1.2546138747033002 2.1730835803725519 7.7013218743833454
0.0000389160083577 4.3459853140319789 7.7054249704718485
-1.2545819149919442 6.5187733731367548 7.6793337238618937
-2.5092384941593151 8.6917376373472912 7.6743658267549852
-3.7639064192937433 10.8647318918271107 7.6879836816058003
5.0183911596803510 -0.0000513924482574 7.6910594638797880
3.7638026043608108 2.1730012739716398 7.6869422774580585
2.5091320342314183 4.3460983117677934 7.6997615836633910
1.2546932597878220 6.5192347984385135 7.6941385540823779
-0.0000500149851846 8.6918049574162364 7.6789699022944031
-1.2546185730289117 10.8647024884434344 7.6901643338011514
7.5276088652602198 -0.0000111164592415 7.7055616257507715
6.2730043648602978 2.1729371576776710 7.6792672446975985
5.0183413778195876 4.3458900471188597 7.6736989321458839
3.7637475648897674 6.5187403825114485 7.6837374904534652
2.5087643038957630 8.6921321471839601 7.6832946868359935
1.2546888176567785 10.8648287886089445 7.7025820456268512
10.0367700074749333 0.0000693093167870 7.6997217452151299
8.7821477016511373 2.1730298883366563 7.6916584748899473
7.5275715043731211 4.3459798344176255 7.6776489137760651
6.2728465305730552 6.5188509108123780 7.6901674819104304
5.0185347496072445 8.6917278365004531 7.6868995753518998
3.7637043110232362 10.8644709847741936 7.6896522778610237
5.0182873506868679 13.0376135158405191 7.6742885955623477
11.2913127817650096 2.1729615366000425 7.6879470100466607
10.0368118214725879 4.3459337972119796 7.6892857838830535
8.7821807934159573 6.5188738074380295 7.7012471121225898
7.5275454906001213 8.6917597100128496 7.7046772743801784
6.2728590440643819 10.8646801542465852 7.6798956068638242
2.5093703562690064 8.6917630609041563 1.0048652001914820
3.7030211442645382 8.0025447966983965 1.0067434934908244
