rBN 3-layer slab
1.0
15.0551462173000008 0.0000000000000000 0.0000000000000000
-7.5275736112000002 13.0376828894999992 0.0000000000000000
0.0000000000000000 0.0000169606000000 10.0278787613000002
B N C
107 107 2
Cartesian
1.2518131196786819 2.1686240357640028 0.9753533638605404
0.0020211436444496 4.3512860416255714 0.9670139045963938
-1.2502860141853329 6.5210453408389517 1.0231893131070797
-2.5035932451123926 8.6926022938243772 1.0371227907291733
-3.7641257983258978 10.8649949401551194 1.0066987693549063
-5.0179603541890030 13.0372505586541578 1.0022029625067566
3.7640022276828651 2.1697021195450463 1.0076946561898392
2.5023330115817259 4.3283086730062745 0.9815373356127531
1.2715743777680208 6.5224843818776312 0.9962749996810280
0.0035997223238633 8.7044566233129945 1.0254051770769921
-1.2611230018012294 10.8686349744430419 1.0011099349053172
5.0178576498669880 0.0007106040092037 0.9968708256737108
6.2753000995195656 2.1699755482348055 1.0234137107780614
5.0190785010398313 4.3427548727577028 1.0383194851368041
3.7431817386517565 6.4965877488505264 1.0091732575326791
1.2450508776642388 10.8548622882109473 0.9772151723515700
0.0020274127552300 13.0324775573615383 0.9652083141125043
8.7833611192733283 2.1710109385472247 0.9951019981145679
7.5266480426759239 4.3469291686289546 1.0278481627767675
6.2637200129883173 6.5244441026715494 1.0016346370564797
5.0272226486639831 8.7210594909697932 0.9964960080387281
3.7686521471653145 10.8481335438278990 1.0084614373396992
2.5094949898641952 13.0324236487061889 0.9798152627676189
11.2910002558194211 2.1715637953521814 1.0046274593353168
10.0370793537848719 4.3454315637194343 1.0021425455465671
8.7806184185169336 6.5190661697934580 0.9755592499252834
7.5308417256310083 8.6929995055932405 0.9644845296757405
6.2846259185079010 10.8794150283814162 1.0215219170004768
5.0148238738709310 13.0331746840366449 1.0360374910880159
13.7990050564649156 2.1739397338543074 1.0013777301540290
-2.5085082486898935 4.3470839608211289 0.9989631277332964
-3.7620649637911461 6.5187222802913443 1.0083718065252154
-5.0142984663478849 8.6912955775640359 0.9795554568066251
-6.2696966280238131 10.8658408442815571 0.9959304702804471
0.0022684172095362 0.0040786871917384 1.0279553832773689
-0.0000301060428673 1.4486021843739854 4.3439673458543648
-1.2545496770311904 3.6216802903244654 4.3256027640340999
-2.5094776946108301 5.7944792563001108 4.3537806369963707
-3.7641704518007755 7.9674330256020180 4.3517604044530112
-5.0186347482678393 10.1403107297710307 4.3339194177363289
-6.2732109092452504 12.3131465197142944 4.3543198502728622
2.5088644582109172 1.4488423019138266 4.3341324916594637
1.2546243251484481 3.6216257777399421 4.3054958098676446
0.0002096131464435 5.7940423100761977 4.3353284393861387
-1.2546028179807582 7.9671541235982506 4.3817800173718728
-2.5092717562615441 10.1406139922356200 4.3620343541206301
-3.7640536204389248 12.3136863191143195 4.3443538706063629
5.0180339677283436 1.4493458213620514 4.3541655730489630
3.7637826514994281 3.6223335403528925 4.3509975810395725
2.5097101384814020 5.7948439542266552 4.3332816458796373
1.2557438033764670 7.9663954092187597 4.3546583013630382
0.0002838358218415 10.1402090144062011 4.3444652783652113
-1.2547321365780875 12.3138992393779656 4.3262366698316495
7.5275662377808015 1.4490583512634110 4.3362023701310921
6.2728472117385081 3.6222380790209887 4.3813677517804468
5.0184572393897362 5.7955567472826095 4.3603159565248069
3.7640630712443857 7.9674332643570889 4.3371599012515523
2.5102772969080664 10.1397880805587128 4.3360539349895735
1.2548697838287886 12.3135580240407752 4.3067146050612095
10.0371810713735670 1.4487829281418396 4.3345710276449800
8.7820967565062578 3.6216314787720019 4.3542615628702430
7.5271720040469310 5.7947461360696231 4.3435342999682147
6.2721814554773250 7.9674454335248308 4.3252287658759911
5.0180060774622488 10.1401205246286850 4.3552926748045859
3.7642665326232034 12.3134750144542515 4.3528841529891036
12.5463228867929892 1.4488242320609686 4.3621918986998018
11.2913912892535944 3.6216831791838984 4.3443681812490151
10.0362775136149729 5.7944515810334059 4.3342342730005274
8.7815520164704033 7.9673259225067907 4.3057786603326296
7.5270295043927691 10.1401155050247702 4.3359391109353842
6.2729606507185913 12.3132788545999450 4.3824430310722642
1.2543610681409367 0.7241888618022008 7.6871898706203536
0.0000734954053943 2.8973417995369766 7.6539633862879599
-1.2546123996852192 5.0701482406052403 7.6781774798345612
-2.5094901093330049 7.2430127817004353 7.7200311081964710
-3.7640112475275997 9.4160888414881292 7.6948356183669198
-5.0186290905338229 11.5889545037342359 7.6861973807145523
3.7634114825666840 0.7247569130255160 7.6882867921775668
2.5091367635709720 2.8976252800827647 7.6639505612246728
1.2551343369716530 5.0703013411202784 7.6544115691641421
0.0004011198616831 7.2425369794605494 7.7105426762120075
-1.2545834394881261 9.4159845242429103 7.7192698364025460
-2.5093832149670856 11.5894604164879453 7.6866438984179775
6.2727529554987287 0.7249901049145451 7.6784852520310629
5.0181916189997482 2.8980703026179824 7.7204929333558470
3.7643134713002313 5.0712361448126337 7.6945877405461909
2.5107687802033385 7.2435329869568044 7.6866689263906460
1.2557322038969942 9.4151517783104079 7.6846101315933506
0.0000484168067650 11.5893250526246590 7.6538643259250598
8.7824013733308472 0.7246465770620959 7.6528903536509301
7.5274721384613228 2.8976746728967600 7.7106300268979995
6.2728010765693210 5.0708971669426441 7.7198541977529826
5.0181094885999666 7.2436199987451113 7.6874760243153659
3.7638507691434793 9.4146507875563756 7.6881869572790720
2.5096314842829499 11.5889572715947242 7.6633029860898416
11.2917792213980253 0.7244176732964541 7.6949247646093415
10.0368856977306269 2.8973775228399918 7.6864695525972211
8.7817633062164919 5.0702664283236079 7.6872850216617019
7.5269398880632856 7.2432071625535652 7.6545421142906838
6.2722215444277793 9.4155418813767131 7.6775519323681802
5.0183159677500431 11.5885984851283670 7.7208394369176911
13.8006401792387425 0.7241906532471047 7.7191498940025829
12.5461139688675001 2.8974303104717758 7.6868025777296189
11.2910209638426462 5.0702357312519197 7.6880280893464645
10.0361883444365052 7.2430493237581759 7.6632209447686588
8.7817038274019907 9.4158118395788506 7.6530650359236114
7.5272876252376815 11.5886173759382949 7.7099710834085160
-0.0019813542521473 1.4495803565148209 1.0040163709185357
-1.2536466246920608 3.6252828773150947 0.9802367745594656
-2.5051501423301921 5.7968644863683023 1.0207645511477872
-3.7569405341879709 7.9677477307773996 1.0169889177878080
-5.0153210307737979 10.1403775190924552 0.9895858757988751
-6.2717966847357420 12.3146190800883595 1.0184403723228410
2.5081985178796407 1.4467653991310729 0.9907970864247150
1.2478443520117639 3.6143598444939475 0.9515989204048688
0.0077783821149935 5.8076983057575733 0.9924580269451105
-1.2416896835099125 7.9705891732562559 1.0541065869289219
-2.5086074053118357 10.1404343287778254 1.0307223698034718
-3.7628052066787503 12.3129453076131234 1.0047191330679186
5.0195501167130008 1.4465425873395765 1.0189845505486761
3.7623756231082517 3.6149214290218095 1.0180193481152562
2.4955166097831945 5.7704019276413101 0.9929128555768347
1.2827960889096068 8.0012073379369095 1.0142153830107923
-0.0060677168198560 10.1436833700169284 1.0035720799625325
-1.2543829098662276 12.3133141429954609 0.9770010483458533
7.5307384618568340 1.4425015633845961 0.9908774964121184
6.2748896511781673 3.6168406916896942 1.0578989616671952
5.0136170000675859 5.7861193105048230 1.0294253870527330
2.4935221819569477 10.0987861840290289 0.9959321096563033
1.2581832591820992 12.3003074269613712 0.9530483307850962
10.0371712884804207 1.4434855720976785 0.9877570217045488
8.7828556106042566 3.6199023420407408 1.0169334350297918
7.5244005594014078 5.7963557938695773 1.0041633420924130
6.2779916968297433 7.9763943544162794 0.9784324371475336
5.0320189779428768 10.1645497173507344 1.0161266952997492
3.7561788624094219 12.2999655222231006 1.0161877529558476
12.5436335978092117 1.4460513123361454 1.0276883417952192
11.2922891962671006 3.6209686457462502 1.0047144195067954
10.0380236587733087 5.7944480451805935 0.9921829614582093
8.7875053788123445 7.9682980130505152 0.9499159431143093
7.5327920791705569 10.1450240466251209 0.9900104018470091
6.2757957502714143 12.3225571757099619 1.0562183421905100
1.2544111141735352 0.7241721640874976 4.3465829808300365
-0.0001485176329589 2.8973208157515269 4.3105938953586582
-1.2548127228185131 5.0703484716461436 4.3354922887027474
-2.5092469312255115 7.2432853647672522 4.3807831103834385
-3.7635219594814298 9.4162151313059219 4.3559703342295739
-5.0182472202905748 11.5890048992089572 4.3466339402578749
3.7635625440308971 0.7244900498240449 4.3468101375116026
2.5089666011886793 2.8972863031656604 4.3206523778920323
1.2544509850925658 5.0700361133881184 4.3106045683018728
-0.0000791445232742 7.2429318436459438 4.3698404497610790
-1.2544235939773234 9.4161179998632800 4.3808876590609236
-2.5090455147644892 11.5893356664447253 4.3461380313091151
6.2729046744307295 0.7245903310321197 4.3363137210361291
5.0182432388986582 2.8974730071676622 4.3812732890709789
3.7638495512790913 5.0703472152112310 4.3551318017488994
2.5086683848472782 7.2426863182309438 4.3472660336657016
1.2545587937983662 9.4158034092973057 4.3444130798335259
0.0000282726745028 11.5890922392667033 4.3105632755805745
8.7823675643832715 0.7242897437159930 4.3112019721417383
7.5276389941368542 2.8971438156245934 4.3715139573339945
6.2730669854946557 5.0702924021488567 4.3809659979652329
5.0186029040073903 7.2433815657259979 4.3475497302482493
3.7635858767198536 9.4169558183713722 4.3494134877047861
2.5091367669956606 11.5891356287513201 4.3216166252615293
11.2916642858025362 0.7245173803734495 4.3566927016864048
10.0370216960989502 2.8971375914596194 4.3468583050221383
8.7821412229645528 5.0699800311602408 4.3467165572008293
7.5275542603206080 7.2432982740363325 4.3115159220765360
6.2727560507464784 9.4165122775604040 4.3366703308968226
5.0182652045938845 11.5894330024006447 4.3821107901680572
13.8006168864844980 0.7244470160218406 4.3814697986207740
12.5460776581861460 2.8975101392137557 4.3462595711313670
11.2912251584872489 5.0702661892050278 4.3466784760313981
10.0366994514752204 7.2431616131173904 4.3211892403686676
8.7822570896978558 9.4161475494624227 4.3109375848476397
7.5275210783272577 11.5890350618224964 4.3717325588661637
7.5274579563687780 13.0374827848212114 7.7246710853114378
-1.2545413204873661 2.1730619838802183 7.6891991649950269
12.5458797222550675 4.3461130040401041 7.6849167131196445
11.2911818520131657 6.5188992873426033 7.6963970752520678
10.0369187616815783 8.6917979980047466 7.6584817830050884
8.7822505607908798 10.8646305431304011 7.6824134719381423
2.5090558462819992 -0.0000818801066913 7.6902722218415072
1.2544007278735283 2.1729087532020088 7.6546538628443201
0.0000167026392372 4.3460908569595258 7.6426925061582862
-1.2546956717555844 6.5188830667691358 7.7199550991396171
-2.5090569593562457 8.6918449606919257 7.7362979946649224
-3.7635384227291886 10.8648317427171968 7.6942889473636074
5.0182895935893352 0.0003144737242551 7.6850635587714420
3.7635374649581399 2.1731010910048711 7.6968239790922830
2.5092597403117844 4.3460135949327166 7.6598597781677560
1.2549031105259285 6.5189082424435005 7.6854535443400094
0.0000106184681206 8.6915684679876151 7.7262271576286610
-1.2545046170359309 10.8648949278669136 7.6896065319399289
7.5276097262607067 0.0001957849967985 7.6427099544007886
6.2728847639405068 2.1731301977728044 7.7202390069135030
5.0184782863332842 4.3460310264872808 7.7352015471753663
3.7641190542646954 6.5187946691056986 7.6902376047610845
2.5086234402954770 8.6918913530445376 7.6842182018447369
1.2544563874644112 10.8647673331460801 7.6553852196132306
10.0369219399603260 0.0000358459439056 7.6587903651595877
8.7823525154120610 2.1728910168876117 7.6830069857137708
7.5275648392141212 4.3458028994174205 7.7248558379003578
6.2729971742751802 6.5190970266332204 7.6896290886678589
5.0183923074782655 8.6920700320888571 7.6807544633954583
3.7633157807073467 10.8644953539573468 7.6989157089546207
5.0183906357739785 13.0376462698346405 7.7361109772501662
11.2916486252504882 2.1730269548711685 7.6945196492385550
10.0367283665723459 4.3457860731611451 7.6902060562740138
8.7820429840701397 6.5187796251508807 7.6540596826821945
7.5276016401565888 8.6919435932839555 7.6422802188886765
6.2727122058232627 10.8647376620313523 7.7194649241746820
2.5092315673559469 8.6915252256395021 1.0055198389240776
3.7030409919543819 8.0025794462155666 1.0074925488754740
