rBN 3-layer slab
1.0
15.0551462173000008 0.0000000000000000 0.0000000000000000
-7.5275736112000002 13.0376828894999992 0.0000000000000000
0.0000000000000000 0.0000169606000000 10.0278787613000002
B N C
107 107 2
Cartesian
1.2518751937449062 2.1686757506232981 0.9841350081061470
0.0020368347565535 4.3512762513924983 0.9786024839273382
-1.2502199152597104 6.5210729021053497 1.0159778155698183
-2.5036063431226467 8.6926069984080616 1.0252103891901458
-3.7642167585491739 10.8649672066129259 1.0050108330193064
-5.0179339245445105 13.0372967395909303 1.0020260069677076
3.7640795068181481 2.1696758694756064 1.0056938428273534
2.5023262234978327 4.3283326799828625 0.9882448738047772
1.2715461413607045 6.5225575179772344 0.9982527779170195
0.0036307268468753 8.7045448348377761 1.0173753952983704
-1.2611432578763131 10.8686018058045466 1.0011964184397733
5.0178788110234143 0.0006189831228988 0.9984589081884627
6.2753239846249729 2.1699223078075627 1.0161567070473625
5.0190586454053161 4.3427049765865009 1.0261018923717791
3.7431260085320348 6.4965795878392605 1.0069877411606660
1.2451113445670501 10.8549318587145702 0.9852489008174783
0.0020374937754380 13.0324690322394083 0.9772673942685883
8.7833222543191418 2.1710947511041225 0.9972700797567654
7.5266393572978556 4.3469618710527946 1.0191571142833058
6.2636810076963689 6.5243796566159773 1.0017102965979778
5.0272426268135399 8.7210088690566501 0.9985362629705811
3.7687296201855829 10.8481459218595262 1.0063776090947834
2.5094838486398059 13.0324931288544548 0.9870627394980144
11.2909435804005440 2.1715961509785409 1.0036434118303350
10.0371188006325092 4.3455015388515346 1.0019851346828701
8.7806487865148561 6.5190756440208348 0.9842978971824307
7.5308067756571351 8.6929585552691204 0.9768787623187245
6.2846507350303220 10.8794237929887387 1.0149015767438589
5.0148051417645938 13.0331851726947825 1.0246188366043043
13.7989886271339000 2.1739146994345449 1.0014907144410961
-2.5084534840860493 4.3470530923195811 0.9998671992238222
-3.7619737091282905 6.5187308480173227 1.0061164066432542
-5.0143578028607694 8.6912890370283957 0.9869177176744114
-6.2697576610789190 10.8658954000428700 0.9978508569557327
0.0022814163956060 0.0041598554937149 1.0192037615898422
-0.0000231944656975 1.4486145607188787 4.3440171794538021
-1.2545541026639968 3.6215958282705074 4.3317758802600954
-2.5094160133430767 5.7944161161590406 4.3505565914949944
-3.7641680800977113 7.9674050187789538 4.3491988168421747
-5.0187242057164596 10.1403191947947438 4.3372720440354220
-6.2732287046612170 12.3132131151757847 4.3508523347689350
2.5089320149602647 1.4488590843635540 4.3373940486077682
1.2546313414555825 3.6216266826595302 4.3183761722746690
0.0002010822711185 5.7940450741948428 4.3382903136946265
-1.2546046951541496 7.9671529884472871 4.3693282886972753
-2.5093463536062033 10.1405571768094820 4.3561320146626308
-3.7640768276837773 12.3136451048438929 4.3442349885513787
5.0180878533773994 1.4492727974382709 4.3507696871683956
3.7637828571809795 3.6223111492347555 4.3485246926580716
2.5096362966739889 5.7948694110802368 4.3369291224816910
1.2557352852882937 7.9664705265765088 4.3514661501063019
0.0002909618473865 10.1402209539589236 4.3445142971248538
-1.2547437427325583 12.3138068229406414 4.3322671483345569
7.5275422431954677 1.4490466232903407 4.3388269809621285
6.2728396329796761 3.6222300265854868 4.3688267464305870
5.0183827252341464 5.7955023079848802 4.3545347104563366
3.7640470156756138 7.9674031488671080 4.3370549656242590
2.5103478613398011 10.1398170047889771 4.3390630990795112
1.2548696013581870 12.3135532427761092 4.3192845457287463
10.0370954095727960 1.4488019245047308 4.3377509114703248
8.7820800052478862 3.6216993081722997 4.3508158345478876
7.5271737394989282 5.7947494473729311 4.3435722897311155
6.2721722955012096 7.9673538975151477 4.3311432382890320
5.0180679004275053 10.1400699341388023 4.3516030211153822
3.7642745802899489 12.3134668125261300 4.3499936821788365
12.5462515042596134 1.4487772685242424 4.3561690067002985
11.2913744574429025 3.6216525737743503 4.3442572880100565
10.0363455959836205 5.7944698076962640 4.3374641884153879
8.7815490713435711 7.9673141859159511 4.3184339021330844
7.5270122592348434 10.1401042906895107 4.3384857508739012
6.2729607077964760 12.3132868188644551 4.3696743166509906
1.2543999407944768 0.7242563980494132 7.6870966615938237
0.0000869321235183 2.8973283098786906 7.6649294265289116
-1.2545879073715938 5.0700921521241060 7.6810125953000723
-2.5094672151382489 7.2429774791294799 7.7088752427272009
-3.7640893084688418 9.4160687460804802 7.6921610395583748
-5.0186814890152984 11.5889896860945143 7.6864117063143658
3.7634689041395903 0.7247285966908786 7.6878045972569131
2.5091852708396400 2.8976429284437772 7.6716081578976674
1.2551051720329958 5.0703351423638239 7.6655159863040048
0.0003864805630168 7.2425871850623391 7.7026534333232579
-1.2546203583386464 9.4159767917931028 7.7084672692419263
-2.5094254605794095 11.5893876507802087 7.6866688431263057
6.2727755635871434 0.7249139315636464 7.6812610575926872
5.0182278233095881 2.8980290664912243 7.7092920389614568
3.7642440851726287 5.0712222268988034 7.6917918006873984
2.5107223809476897 7.2435841740995741 7.6867838617674096
1.2557762976237603 9.4152276269853914 7.6845128133842930
0.0000594854107315 11.5892896151801814 7.6648633432096824
8.7823602130538916 0.7246483097513856 7.6641146168119905
7.5274577182164748 2.8977007696271628 7.7027202727919049
6.2727704642029840 5.0708726622080320 7.7090664339829953
5.0180655277304043 7.2435462267537307 7.6874957782869897
3.7639183053968330 9.4146359009626259 7.6877957146280771
2.5096819918969095 11.5889679103333449 7.6711601602993822
11.2917178210426492 0.7244095720307281 7.6921778308643418
10.0368344185625968 2.8974070053608836 7.6865931003644761
8.7817893302658483 5.0703131585983527 7.6871914339686418
7.5269311590779173 7.2431696196307254 7.6655256437467187
6.2722446518285269 9.4154770016242519 7.6804354956666048
5.0183605383056973 11.5885903271850665 7.7098025224372471
13.8006207138950110 0.7241971174596741 7.7083874789032896
12.5460769020514231 2.8973680475736039 7.6868262710154465
11.2910719664890014 5.0702065597399146 7.6876321655533246
10.0362165698169150 7.2430489470639809 7.6711140220944740
8.7816497892454013 9.4158226697313072 7.6643404457099598
7.5272801639760392 11.5886705698458563 7.7022888945023000
-0.0019537128070913 1.4496312470643216 1.0041022805573303
-1.2536258367579893 3.6252190378586961 0.9882456427472279
-2.5050454639151454 5.7968477222294856 1.0152209694859415
-3.7569322907203451 7.9677573408880136 1.0126880779230909
-5.0154315701336438 10.1403917067776188 0.9944597567518362
-6.2718062028927548 12.3147115732066741 1.0136980264965834
2.5082822397887297 1.4468028732470875 0.9952692651317246
1.2478774431865947 3.6143913008081574 0.9691263724364417
0.0077851736201045 5.8077192617642552 0.9964426116681447
-1.2416544428180121 7.9706431670995110 1.0373191283848104
-2.5086792576178572 10.1404074440943468 1.0218470855611104
-3.7628253773640337 12.3129110231105727 1.0045418317424655
5.0196178914594025 1.4464544723425434 1.0140590055368057
3.7623815905257438 3.6148948573326454 1.0134103632142126
2.4954494458002681 5.7704435233162190 0.9967427255072926
1.2828022967425403 8.0013168742070508 1.0110470293894285
-0.0060329735643496 10.1437449616184061 1.0036372347845117
-1.2543713758190673 12.3132402700951058 0.9860327297292889
7.5307426647493108 1.4425147398301952 0.9952810170168307
6.2748971307169565 3.6167937881706744 1.0400057435171817
5.0135412381145104 5.7860554190663294 1.0209836019698835
2.4936144616481517 10.0988457183478264 0.9988586294206218
1.2582108294113450 12.3003628194470878 0.9699471137519969
10.0371026046110696 1.4435667072211968 0.9932160576851367
8.7828576607019251 3.6200089534542172 1.0126913348149755
7.5244005086371404 5.7963585485357845 1.0042405605475899
6.2779721287648860 7.9762981651650895 0.9869886017341053
5.0320895289972816 10.1645142376705859 1.0122186332258261
3.7561923085540512 12.2999819404290580 1.0122629483680161
12.5435647896682880 1.4460388303796199 1.0198788588791707
11.2923000021813600 3.6209894667787283 1.0045575319340825
10.0381134200060309 5.7945035162302743 0.9961910347734664
8.7874591041204102 7.9682812362644597 0.9680172717116203
7.5327667973903534 10.1450178531497262 0.9947378556945097
6.2758056135221052 12.3226042641822549 1.0388732523512518
1.2544492536118457 0.7242376726539587 4.3464832853441848
-0.0001357201647523 2.8972937256129727 4.3225191075012415
-1.2547779583666105 5.0702687638798354 4.3390791916312939
-2.5092144989743064 7.2432416747964936 4.3692271950706481
-3.7636098976390207 9.4161864600392740 4.3527413682905589
-5.0183112216486414 11.5890328884252192 4.3465104243214476
3.7636203720392003 0.7244481426777722 4.3466279263391225
2.5090042782112913 2.8972935094660408 4.3291585874477923
1.2544128661206930 5.0700513801111722 4.3225593246447866
-0.0000796172448049 7.2429732919594585 4.3618029917259342
-1.2544539341257486 9.4161117891529162 4.3692739982196089
-2.5090968399746614 11.5892467152234726 4.3461449670722025
6.2729253718335274 0.7245006942317449 4.3396373587140005
5.0182702358497231 2.8974245028203374 4.3696017853395084
3.7637639501824682 5.0703243237565774 4.3521053526441786
2.5086186059355344 7.2427250760718449 4.3474859956853047
1.2546067574391699 9.4158857466987644 4.3443242472492978
0.0000374498073580 11.5890622630373432 4.3223912229502472
8.7823130748122420 0.7242932157967805 4.3228398011094589
7.5276246482613827 2.8971759822557082 4.3631161509966230
6.2730317562257394 5.0702728357626432 4.3694934613178864
5.0185539891714583 7.2432966069636375 4.3475619882083940
3.7636465113944619 9.4169315649435514 4.3489173024800802
2.5091737477207987 11.5891537209928224 4.3296535535330003
11.2915777391415926 0.7245051191463135 4.3532128645509696
10.0369621400864606 2.8971751023802925 4.3466771464119800
8.7821786517339522 5.0700442282084799 4.3466077930113025
7.5275544644076904 7.2432578464694872 4.3231933584891262
6.2727812678393580 9.4164271220177085 4.3397976519887580
5.0183011730406433 11.5894082510912515 4.3702299859128457
13.8005870409715090 0.7244453360504436 4.3697697295770030
12.5460338543998446 2.8974339078077525 4.3462837209922816
11.2912896328204511 5.0702332183853613 4.3465568635712701
10.0367349340143033 7.2431632606773588 4.3295660246594991
8.7822027555038655 9.4161451961088005 4.3227112751763039
7.5275103499833431 11.5890713769829912 4.3632121301625704
7.5274689487029738 13.0375533242233690 7.7129991258873414
-1.2545609200215784 2.1730308832412084 7.6893429517347895
12.5459075351491922 4.3460336184457642 7.6864744800173543
11.2912373536468920 6.5188722662291996 7.6940965488168747
10.0368609160400144 8.6917981121721795 7.6688243049266109
8.7821971228097020 10.8646761518356296 7.6847469153112486
2.5090818656521301 -0.0000374735874346 7.6900428173430280
1.2544540145809713 2.1729524599946446 7.6663208657290767
0.0000222559815173 4.3460644712276393 7.6583756222366768
-1.2546672325646744 6.5188556433610403 7.7097997553201862
-2.5091023430570134 8.6918181298557684 7.7208149526874381
-3.7636304218703271 10.8648067799946748 7.6927126309241558
5.0183149851120890 0.0002230071811270 7.6865625350485285
3.7636037498088073 2.1730761367465634 7.6943535536837269
2.5092278137916928 4.3460347741414855 7.6698352295416647
1.2548506478414019 6.5189898814422538 7.6876247967756015
-0.0000045398952057 8.6916275903447691 7.7144128437950963
-1.2545331060341760 10.8648468180110438 7.6897459824052339
7.5276095110105850 0.0001440596327885 7.6584228722382841
6.2729146641704547 2.1730819377490214 7.7099960663595271
5.0184440592048594 4.3459957816451755 7.7198258934179957
3.7640261819209635 6.5187810974571363 7.6886125761841804
2.5086586561955486 8.6919515515793933 7.6839873230925511
1.2545144950125029 10.8647826970117976 7.6671844261166360
10.0368839568389774 0.0000442117871259 7.6690232101734734
8.7823013119718301 2.1729257347498732 7.6851698580078152
7.5275665055038719 4.3458471331674717 7.7130541068692846
6.2729595133496492 6.5190354976780096 7.6897636869785018
5.0184279180105102 8.6919844831917565 7.6822907413845689
3.7634129132863188 10.8644892616615589 7.6965998511812215
5.0183648145022008 13.0376380813361088 7.7206553818282115
11.2915646643791181 2.1730106003033871 7.6928764894405814
10.0367492302974064 4.3458230041738544 7.6899759881762737
8.7820774364065954 6.5188031707226681 7.6658565400422933
7.5275876027674720 8.6918976224661790 7.6578794827615519
6.2727489153835423 10.8647232850851605 7.7095725948469678
2.5092662645842116 8.6915846844556661 1.0053561792409287
3.7030360300319209 8.0025707838362745 1.0073052850293116
