rBN 3-layer slab
1.0
15.0551462173000008 0.0000000000000000 0.0000000000000000
-7.5275736112000002 13.0376828894999992 0.0000000000000000
0.0000000000000000 0.0000169606000000 10.0278787613000002
B N C
107 107 2
Cartesian
1.2520038664155255 2.1688053766312088 1.0198443411179599
0.0020634063095529 4.3512735353739123 1.0156586084925558
-1.2501097485704982 6.5211421020929397 1.0019493362111045
-2.5036465421801308 8.6926320875057659 0.9906008273160264
-3.7644306911885486 10.8649253758299693 0.9937542103131048
-5.0179041521361611 13.0374042192484101 1.0090372932472806
3.7642339715209925 2.1696504406332981 1.0053678160567112
2.5023199874768158 4.3284082145520442 1.0097776093054669
1.2714761549159961 6.5227290336589663 1.0055170004019418
0.0036734361128681 8.7047450297645259 0.9944436847936762
-1.2612327056295396 10.8685641500191359 0.9877007513269803
5.0178931490206207 0.0004564942831211 0.9939059070803049
6.2753619637534133 2.1698161036927575 0.9934429884049359
5.0190211289968181 4.3426177356700393 0.9980938217136337
3.7430110389816429 6.4965756436307913 1.0010073286834851
1.2452032625503107 10.8550797931241068 0.9945322896972810
0.0020372227134977 13.0324585599281981 0.9908359066376952
8.7832233541557798 2.1712849157303462 0.9957426181734295
7.5265926970905435 4.3470502900078616 0.9924472068960033
6.2635754809848923 6.5242683780313246 0.9946695023594256
5.0272729235717435 8.7209078146602046 1.0009882903862499
3.7688579168165073 10.8481727160221677 1.0055718666905853
2.5094401445037513 13.0326474591331429 1.0021265317430292
11.2908205489109701 2.1716720134110745 1.0094172049194303
10.0371691318599847 4.3456591748340561 0.9977716781428830
8.7806747476966986 6.5191086516734869 0.9923098181459985
7.5307296572741675 8.6928713337093253 0.9979335194117787
6.2846826737821004 10.8794247299991262 1.0097235913630100
5.0147532420548941 13.0332042417990159 1.0157226945489839
13.7989604565801951 2.1738639848560690 1.0214943185694156
-2.5083571174775541 4.3469968747421248 1.0093262670181518
-3.7618199994158714 6.5187565600205817 0.9955132133926070
-5.0144802853754094 8.6912848290530320 0.9931580466485164
-6.2699016610270704 10.8659945733240288 1.0051943897105120
0.0022883071922494 0.0043110073058781 1.0198240449008800
0.0000070250298209 1.4486299720169762 4.3408740787845019
-1.2545640913167750 3.6214413942793544 4.3429538875912836
-2.5093058748361998 5.7943082857721144 4.3453630654448618
-3.7641640903244462 7.9673476396384615 4.3454430262102477
-5.0188813338496230 10.1403179629883695 4.3430019140266509
-6.2732360628670980 12.3133223367057720 4.3407356540499471
2.5091018492946544 1.4488800017993810 4.3406886617363547
1.2546716958935271 3.6216362652229308 4.3415037035569117
0.0001905353640246 5.7940734255290778 4.3461708285787930
-1.2546138138276832 7.9671608630012294 4.3504008400424228
-2.5094873321588533 10.1404377866475333 4.3493968087892050
-3.7640946922760050 12.3135462077996838 4.3444804124229197
5.0182220620222493 1.4491174062357128 4.3429683975689350
3.7638206381772092 3.6222630524781527 4.3394533111153324
2.5095230574740679 5.7949231583828791 4.3429629643319405
1.2557222413723677 7.9666296882685179 4.3502360343047997
0.0002999657519889 10.1402473113035594 4.3529992902646617
-1.2547582789999818 12.3136176402042494 4.3494098212119452
7.5274945628815493 1.4490249786112841 4.3454645676363493
6.2728434607257855 3.6222113477892073 4.3398609826503094
5.0182666771041875 5.7953843485184482 4.3381553913931272
3.7640345721768300 7.9673315642355140 4.3364375033790949
2.5104827649302135 10.1398665780662611 4.3502916384406847
1.2548568759363194 12.3135426988015499 4.3504690830622543
10.0369009981142394 1.4488423520498048 4.3454300610106165
8.7820361776279050 3.6218417084579198 4.3416081260309367
7.5271883223050189 5.7947504057827022 4.3383826126111558
6.2721786324059030 7.9671471801563136 4.3382029763919308
5.0182063866303839 10.1399374811731260 4.3430650554458214
3.7642738779060285 12.3134332272991553 4.3462820078857574
12.5460956053131945 1.4486772760151623 4.3430103486465983
11.2913198808156814 3.6216037368226366 4.3429489415361875
10.0364714552987593 5.7945124589373691 4.3415990731692258
8.7815556533930756 7.9672759147464767 4.3398978186074553
7.5269996121347233 10.1400511608169612 4.3395471394111969
6.2729673465210025 12.3132761725972060 4.3416071181070706
1.2544497711947926 0.7244077481027041 7.6742389357549117
0.0000971301024258 2.8972922621853217 7.6691459386611580
-1.2545331525655736 5.0699546903661172 7.6768639300806614
-2.5094052169468437 7.2428859407061861 7.6896432337292993
-3.7642340152371903 9.4160327799805490 7.6947501844228805
-5.0187994358773018 11.5890834156562956 7.6868742448883927
3.7635565341404789 0.7246700231952632 7.6867941433403288
2.5092368912249357 2.8976659511853815 7.6792555331678312
1.2550129377590264 5.0703751658526750 7.6785733670301886
0.0003534489707682 7.2426624297439064 7.6841119224119225
-1.2546756520944107 9.4159463982200435 7.6916368448377899
-2.5095077542898747 11.5892395616395394 7.6927240736806333
6.2728219660153037 0.7247471320907752 7.6945198307777911
5.0182696894503263 2.8979315817633169 7.6935811497426139
3.7640703292700746 5.0711805075154697 7.6883934119267439
2.5106154022689200 7.2436744851728028 7.6862126760670213
1.2558750912626462 9.4153723580630881 7.6849203366127501
0.0001028570190429 11.5892085532188247 7.6914869405149782
8.7823033441154905 0.7246454148294418 7.6893395508349265
7.5274348318597069 2.8977385984003141 7.6981301118571208
6.2726839307045212 5.0708225483234726 7.7010086636523747
5.0179516217582716 7.2434137291628398 7.6947638858081744
3.7640557978673796 9.4146235731734951 7.6861600740360565
2.5098017951678435 11.5890038137253981 7.6839011604473653
11.2916195276783053 0.7243988766013048 7.6766420183448707
10.0367618745498817 2.8974505740025411 7.6879150497127133
8.7818532442372739 5.0703972035847329 7.7001309501111139
7.5269003796177376 7.2431151821318487 7.7010979473372272
6.2722849371293270 9.4153845806738534 7.6884281806965111
5.0184553267682190 11.5886162764999661 7.6784553347751912
13.8005807360761708 0.7242285551213903 7.6690791780616809
12.5460238896860865 2.8972299329434934 7.6734070829291658
11.2911996986720844 5.0701266512493559 7.6880687154671525
10.0362857853633312 7.2430475179096021 7.6983640558326858
8.7815378748067996 9.4158770519321795 7.6937494605960310
7.5272523257368338 11.5888230291807410 7.6792734554073974
-0.0019044460333237 1.4497402129156918 1.0272003359009654
-1.2535655842562812 3.6250567209412643 1.0205945891976189
-2.5048279829148816 5.7967825420587173 1.0047073756682197
-3.7569086497639761 7.9677761192782972 0.9940352036665188
-5.0156905720914171 10.1404543750711831 0.9990943931945296
-6.2718807910769598 12.3149234693519674 1.0162130686055304
2.5084018125886636 1.4469155923274579 1.0162936643565827
1.2479265474748045 3.6144663020879140 1.0200428470143359
0.0077877261719227 5.8077378940543092 1.0111968936570008
-1.2415817829905520 7.9707363398021558 0.9967906356604229
-2.5088620528414118 10.1403690784097531 0.9904549761909045
-3.7629291120679715 12.3128797817013655 1.0006725555408906
5.0197058533575669 1.4462946439921405 0.9993505695563722
3.7623504429491308 3.6148598184192355 1.0075974068639577
2.4952833506349568 5.7705347696798688 1.0081828056653499
1.2827978977040011 8.0015392233320881 1.0031633436410134
-0.0059926575466945 10.1438873792147000 0.9921433208506235
-1.2543802817242222 12.3131195458396512 0.9906180408011375
7.5307552864697636 1.4425374611433712 0.9943351056343542
6.2748830330786802 3.6166896798965036 0.9961286781460840
5.0133458989659996 5.7859373965322307 0.9994398126589632
2.4937893361323078 10.0989819577416835 1.0032145894175666
1.2582811536537157 12.3004836939580589 0.9969810631274751
10.0369978331275789 1.4437405671465244 1.0049013201894741
8.7828588206324127 3.6202312441156455 0.9966539707812024
7.5243527626152256 5.7963902203797328 0.9944695543205978
6.2779050745783556 7.9761417395458256 0.9993776598737484
5.0322098231834858 10.1644705112549367 1.0081746499505448
3.7562352598863491 12.3000387722977980 1.0112969630484607
12.5434685146542186 1.4460175464728839 1.0206505552151848
11.2923483883769915 3.6210167739449570 1.0088403472926375
10.0382839790230385 5.7946134108108085 0.9965048325103770
8.7873618885638063 7.9682784638959108 0.9958879768973050
7.5326808494736790 10.1450373078746061 1.0074407056130197
6.2758083708036176 12.3227111584693088 1.0200403259821307
1.2545632694984103 0.7243465540350793 4.3427643984086606
-0.0000997193775661 2.8972571879744935 4.3438560562426085
-1.2547169669203007 5.0701521348213632 4.3471875178223600
-2.5091522549984879 7.2431801869333006 4.3495457228765195
-3.7637548981210096 9.4161197349922894 4.3483534794213350
-5.0183875938618092 11.5890554649197988 4.3448692108096427
3.7637906290909644 0.7243362196036751 4.3448389837324726
2.5091231111055565 2.8973092902899533 4.3423550838910083
1.2543558349225168 5.0701169166352535 4.3458235218510648
-0.0000857539664805 7.2430952627602343 4.3511093752522720
-1.2545133320699411 9.4161094330912487 4.3537750196882907
-2.5091632869517202 11.5890475113696318 4.3502764206213245
6.2729900305308073 0.7242993319304404 4.3483586134294283
5.0183668061373634 2.8973106960123909 4.3426364469818370
3.7636289946002952 5.0702835820970149 4.3419495551425822
2.5085384525584709 7.2428199023312168 4.3492319561319324
1.2546786402406418 9.4160640466141690 4.3519138659634020
0.0000471452691263 11.5889953710929383 4.3538104088256553
8.7821797323981148 0.7242891410343758 4.3496105501459796
7.5276018968085507 2.8972296316696138 4.3443211314801786
6.2729899705942920 5.0702218156348371 4.3409028812177866
5.0184839484054296 7.2431110657655937 4.3435644862090035
3.7637624842199338 9.4168574647382393 4.3492916108538413
2.5092109538801299 11.5891744809200219 4.3512059038614668
11.2913631555522649 0.7244665047008068 4.3472812448586398
10.0368138966932907 2.8972540430944087 4.3454579298043106
8.7822545853417715 5.0701727718531693 4.3423559793240667
7.5275802445351383 7.2431591958052213 4.3409359909822935
6.2728458145610277 9.4162231928728186 4.3420471414555575
5.0183524694845838 11.5893245330994166 4.3459501959834981
13.8005172888430874 0.7244240828125991 4.3439198715711376
12.5459201660229418 2.8972966020426307 4.3451139078985088
11.2914009183987236 5.0701910423393821 4.3454265336046705
10.0368187003471956 7.2431673087623638 4.3443206601329880
8.7821304037753460 9.4161123002934204 4.3426976582849148
7.5275091685885007 11.5891052511342938 4.3424523466807621
7.5274920413124651 13.0377032947517471 7.6742494521817184
-1.2546025731225989 2.1729699617299429 7.6698429187501729
12.5459526838247974 4.3458731752980979 7.6806698369494821
11.2913336047073685 6.5188144996287178 7.6957900217457276
10.0367393965804901 8.6917981375935849 7.7000263312400996
8.7820896475113255 10.8647729602538234 7.6889910505467354
2.5091298619297411 0.0000528884225333 7.6844271712987400
1.2545544329590597 2.1730352133534971 7.6742683402015892
0.0000255305654321 4.3460008354217523 7.6749689119033926
-1.2546204181826439 6.5187920314427910 7.6858273042954393
-2.5091951802284087 8.6917556981061068 7.6963916869921025
-3.7638178079159093 10.8647567022864724 7.6952002187593740
5.0183630347813422 0.0000407008381894 7.6950757594179002
3.7637307711544379 2.1730224203424564 7.6888826199097320
2.5091561484814195 4.3460629494016665 7.6837421258560914
1.2547377637875692 6.5191286828610400 7.6870028092857474
-0.0000257996160115 8.6917354367738131 7.6922200585012792
-1.2545864776775570 10.8647469619115267 7.6964641707441039
7.5276144440113439 0.0000445847569280 7.6961171375521502
6.2729704225193776 2.1729879921298698 7.6997713118545468
5.0183737466792762 4.3459204312761637 7.6977183124676660
3.7638643212609368 6.5187404420543675 7.6884362190035294
2.5087444870574607 8.6920616528019465 7.6832694318684833
1.2546429891187572 10.8648091339924502 7.6920758128285325
10.0368100464069148 0.0000723475696985 7.6855308434432983
8.7821933023973120 2.1730066408191093 7.6955133879380062
7.5275595879923287 4.3459414175736413 7.7045193782040844
6.2728753625454088 6.5189164219524551 7.7035232870734349
5.0185226939980732 8.6917996294566713 7.6884405631853330
3.7636227139847933 10.8644946616303777 7.6868602909931889
5.0183188937040120 13.0376329992937610 7.6748078560286164
11.2913924338139111 2.1729856174696955 7.6805176247639411
10.0367788711232890 4.3459014722089044 7.6956420185273320
8.7821336612330274 6.5188529429771993 7.7046491863191102
7.5275618947437426 8.6918082223634183 7.6978408290448588
6.2728307210249801 10.8647084994842675 7.6837211992298862
2.5093290000672090 8.6917099005703857 1.0030754514806581
3.7030111795162486 8.0025648262697811 1.0042300106127460
