rBN 3-layer slab
1.0
15.0551462173000008 0.0000000000000000 0.0000000000000000
-7.5275736112000002 13.0376828894999992 0.0000000000000000
0.0000000000000000 0.0000169606000000 10.0278787613000002
B N C
107 107 2
Cartesian
1.2520954172043406 2.1689490939293070 1.0133924179593994
0.0021177470308622 4.3513661984834995 1.0268392243232538
-1.2501447609923551 6.5211450918905562 1.0301241452191261
-2.5036601492725388 8.6926522558416259 1.0212151814803885
-3.7643532881694797 10.8650066017173632 1.0068121962219900
-5.0177869535852020 13.0375453467460360 1.0020691685264707
3.7643343199597870 2.1697764143278677 1.0091762542899017
2.5024085411100074 4.3285467431798335 1.0249699507166972
1.2715171481275576 6.5228103664978132 1.0265753145651155
0.0036777756629597 8.7047312880589693 1.0148548181698682
-1.2611667711354073 10.8685607195740737 1.0012414568702008
5.0179860190278323 0.0005195429426108 0.9968190975474172
6.2754647326441022 2.1698694366946696 0.9921825204051909
5.0191298315210418 4.3427388053453280 1.0092947993938128
3.7431052182159226 6.4967033179591880 1.0148019570948863
1.2452505250405070 10.8550633681108959 0.9873758206669039
0.0021074065280088 13.0324441978011016 0.9812825147010839
8.7833167837296990 2.1712724524838749 0.9810497163193751
7.5266958859237727 4.3470971947758441 0.9970056094071510
6.2636786694354152 6.5243717538384205 1.0022355215022600
5.0273638616610370 8.7210523248569096 0.9910087386076695
3.7689683422635691 10.8482477118428289 0.9778462143410216
2.5095106715904549 13.0325897742352002 0.9725129696857117
11.2908625878166227 2.1716935090738421 0.9863530842076155
10.0372340914840041 4.3456954440542201 1.0014538890739040
8.7807417998522208 6.5191881346217802 1.0068186358412805
7.5308030088533950 8.6930338013942183 0.9947838203073140
6.2848007487428523 10.8796042626822711 0.9788957537262257
5.0148432671584082 13.0333039263149271 0.9766210615444211
13.7990172059560514 2.1739634097775231 1.0016386162237338
-2.5083261739167733 4.3470308872639523 1.0163791546457634
-3.7618117161047886 6.5188115955404005 1.0217968684203456
-5.0144709300629753 8.6913786979453569 1.0114253983763533
-6.2697930138930937 10.8661623078230729 0.9949780875659022
0.0024129210570915 0.0044858989232350 0.9905460163722482
-0.0001089469620322 1.4484717132654739 4.3443902612954721
-1.2546590117198044 3.6212746592987202 4.3476930175870176
-2.5093813117173904 5.7941887110811647 4.3414704851824606
-3.7642554244441153 7.9672812699602398 4.3320199088296309
-5.0189949192664427 10.1402479203407427 4.3281696127841940
-6.2733585059497541 12.3132085499583663 4.3342515547954594
2.5089918398663933 1.4487449589713659 4.3533898215073901
1.2545669877224122 3.6215003585803789 4.3569106032380516
0.0001157692922440 5.7939645492337037 4.3504531025499915
-1.2546831347055292 7.9670907221127010 4.3414831909645519
-2.5095725033951330 10.1403612196370965 4.3380580576723720
-3.7641945312891409 12.3134419893674778 4.3436650603659857
5.0181624732196841 1.4490054115304576 4.3591376954473224
3.7637461254786899 3.6221688703155936 4.3623649725104130
2.5094563152885527 5.7948732279131816 4.3563174634971329
1.2556790214929929 7.9666111094215601 4.3478832353425236
0.0002666966201572 10.1401817546890278 4.3444637023389703
-1.2548026760583757 12.3135157693967177 4.3499951797922956
7.5274779432048957 1.4489115861289945 4.3557958694082819
6.2728058224825256 3.6221264529276174 4.3588684342339672
5.0182247293185034 5.7953626024898579 4.3520831513719704
3.7640164789756541 7.9673498435070771 4.3367185247138895
2.5104969752514674 10.1398375487190222 4.3422572414517004
1.2548507932375514 12.3134505615286738 4.3473038585880470
10.0368759921627397 1.4487146810939413 4.3471543398633168
8.7820044079167783 3.6217298519988246 4.3498148976428990
7.5271393982760681 5.7946944284654673 4.3433845504824493
6.2721282924621544 7.9671487300992716 4.3333394839147799
5.0181631383136063 10.1399190222978692 4.3320687140335723
3.7642464940825309 12.3133500422823019 4.3383740201581764
12.5460199646627562 1.4485264677238832 4.3413930970834755
11.2912613971527307 3.6214593124895469 4.3443553422065770
10.0364079673897777 5.7944195091177546 4.3379680348857326
8.7814732140061036 7.9672314675521445 4.3280407392101656
7.5269077568409823 10.1400012863787374 4.3244142744714020
6.2728855608187830 12.3131728735890569 4.3316956770967217
1.2545068774577774 0.7244472945158983 7.6865476625444584
0.0001351995530937 2.8973166648875952 7.6677166559131615
-1.2545062476233086 5.0699614304165515 7.6588437014402126
-2.5093942693197597 7.2428617412678253 7.6694335496667021
-3.7642145847663637 9.4160057547711933 7.6885978460123487
-5.0187512624941011 11.5890923239839481 7.6965856147741052
3.7635886718480340 0.7247177061459047 7.6769082758469942
2.5092848970930861 2.8977120980957811 7.6585290783427942
1.2550398035186874 5.0703634182353561 7.6503896500066677
0.0003614336441770 7.2426264912760123 7.6594210417191038
-1.2546951230864170 9.4159098782548600 7.6784857947802818
-2.5095075409080043 11.5892508198600961 7.6869520808591041
6.2727785925501651 0.7247795573672743 7.6854249816214457
5.0182580199662503 2.8979577887423686 7.6673765512655034
3.7640714379472482 5.0711792820566099 7.6587685824789018
2.5105782368437159 7.2436432140314295 7.6688920673348431
1.2558430694335463 9.4153495055495426 7.6844949173499426
0.0000330539527963 11.5891956417835207 7.6958964863691017
8.7822189404117061 0.7246565166587188 7.7041469522036827
7.5273722171787494 2.8977467439337188 7.6854432383913158
6.2726540862867131 5.0707804226103432 7.6778979480920686
5.0179545511957997 7.2433722171923653 7.6873998283076599
3.7640357118187571 9.4145495652274338 7.7049751414807099
2.5097256592994381 11.5889667943174537 7.7145236485746569
11.2915559119713507 0.7244170916439825 7.7144586876413070
10.0366986453529741 2.8974695496415799 7.6956181607901506
8.7818113972863419 5.0703669831584381 7.6871069107858601
7.5268934871013720 7.2430322036870676 7.6969669402435796
6.2722886079732856 9.4153173037508555 7.7132264070252665
5.0184191533775167 11.5885566109586868 7.7246253395203599
13.8005803196477430 0.7242401749035559 7.7053469801834922
12.5460107508766843 2.8972650302185832 7.6867728913056981
11.2911846534287967 5.0701265402968438 7.6783163048539320
10.0362868473675704 7.2430022906525986 7.6886237955069197
8.7815668792564114 9.4158208434731137 7.7062459390278084
7.5272912456451557 11.5888004469640027 7.7146926221086032
-0.0017556998980597 1.4499704814736767 1.0044461509858351
-1.2534789992382385 3.6252537376279754 1.0201312302284318
-2.5048389098881785 5.7968588722393202 1.0301491520119876
-3.7569075743640399 7.9678088992397056 1.0248132506933381
-5.0155627604415498 10.1405086878731794 1.0083415103578586
-6.2716747480989188 12.3150945058932422 0.9971510557715555
2.5085529636032176 1.4471048673692601 1.0121117656979699
1.2480436670232979 3.6146752375234938 1.0280227705372791
0.0078135857449197 5.8078484358360685 1.0344015041218706
-1.2416206714724303 7.9707059689048139 1.0283174105760033
-2.5088060471998643 10.1403550499291697 1.0148681045819121
-3.7627959724894415 12.3129586989296165 1.0044875283591903
5.0197897724917251 1.4463992180434415 1.0006534287958628
3.7624537461420648 3.6150290457691683 1.0193883140845459
2.4953413017443862 5.7706629601180586 1.0287098264051686
1.2827995171449462 8.0015303725986744 1.0182357949076262
-0.0060021973191775 10.1437971205933408 1.0035369508182468
-1.2543519617188679 12.3131058293141997 0.9932344005905772
7.5307796544616679 1.4425627558546359 0.9832264607694441
6.2749522391097674 3.6167865765350404 1.0008116948579364
5.0134299457612164 5.7860232178088715 1.0122072681270287
2.4938061354143506 10.0989473070321640 0.9910270625528788
1.2582504804651269 12.3004191734017265 0.9786987441707127
10.0370125150211980 1.4437455860099140 0.9775055285692456
8.7829125951089768 3.6203015777232106 0.9932068116755350
7.5244491515213081 5.7964398397568422 1.0046530886639249
6.2780018756612623 7.9761836891357234 0.9968000501933098
5.0323410752776629 10.1645304341248082 0.9804866138863512
3.7562955770233106 12.3000714204944259 0.9741916832794442
12.5435231456442313 1.4461831082637029 0.9880048732094449
11.2923919850675230 3.6211447306391427 1.0038838796533063
10.0383427936447731 5.7946943389918273 1.0149841232737109
8.7874255885880821 7.9683213600481295 1.0081615064057254
7.5328517523714895 10.1451453996467009 0.9897899880666429
6.2759736069686198 12.3228918281270996 0.9806911999410638
1.2544481759675847 0.7242413187110306 4.3463321023467936
-0.0001867553364865 2.8970791755222773 4.3532901337330445
-1.2547725103271741 5.0699689415592850 4.3495073679163525
-2.5092150515187890 7.2430680366091860 4.3395608938821102
-3.7638590422301648 9.4160767300448587 4.3330135705153427
-5.0185106154535655 11.5890210083436855 4.3359213622461361
3.7637089347699297 0.7242697689883538 4.3560250077352691
2.5090465478010926 2.8971856582108182 4.3629827985131824
1.2543148288820176 5.0699875902897924 4.3591915443195663
-0.0001004792674285 7.2429967037660283 4.3484792044844864
-1.2545474377527936 9.4160614495101598 4.3425407414615771
-2.5092293527122123 11.5890189586325185 4.3457882181267573
6.2729562761236464 0.7242331373589516 4.3589305486082512
5.0183105136224508 2.8972172038403681 4.3659628879596859
3.7635840945711698 5.0702027510603607 4.3624048783552496
2.5085278360688501 7.2428049467385796 4.3535845002521194
1.2546893907157481 9.4160312631898275 4.3440842662485082
0.0000373182323577 11.5889563849417296 4.3491718169709213
8.7821595071714160 0.7242021601436973 4.3526835760344502
7.5275557099902244 2.8971124604304928 4.3590542466859077
6.2729234429863077 5.0701295610877786 4.3561703473979376
5.0184336145649775 7.2430915563159530 4.3473527884549759
3.7637612120161683 9.4168950089751604 4.3421684980373447
2.5092029861338228 11.5891458837475181 4.3431196089617696
11.2913109147941668 0.7243581402028875 4.3436729215197483
10.0367562625969615 2.8970960003686184 4.3497324646807529
8.7821727596867660 5.0700344040117988 4.3462687378220757
7.5274811427382975 7.2430932317142709 4.3363120314406274
6.2727654574889113 9.4162137936568637 4.3293511479438278
5.0182988171123615 11.5892969830191124 4.3340273429273299
13.8004209685797363 0.7242993249669415 4.3401608282302808
12.5458423253377500 2.8971070111657542 4.3468029497340313
11.2913258306858051 5.0700161440799691 4.3432999658763949
10.0367135394872200 7.2430681795134930 4.3332110115977480
8.7820021768989776 9.4160745617931596 4.3259218090363492
7.5273931615802683 11.5890560591852125 4.3292924664364874
7.5274590634653720 13.0376558749861680 7.7079825030199807
-1.2546414195157243 2.1729046040647195 7.6893362408213797
12.5459323562126546 4.3458406897265380 7.6746577727075023
11.2913157168596214 6.5188056064106235 7.6795457550028488
10.0367235444456657 8.6917925882356624 7.6981964643006089
8.7820727215202190 10.8647553026798676 7.7115150319839962
2.5091146046228983 0.0000213213595552 7.6893641836789079
1.2545397966126939 2.1729951348220857 7.6705273535149345
0.0000061139144645 4.3459593621688342 7.6555980859017136
-1.2546378933552176 6.5187824047679293 7.6597703793732421
-2.5092229965343367 8.6917499477298428 7.6798366217766532
-3.7638358261560092 10.8647395320304270 7.6940360317777321
5.0183574008829392 0.0000130977877531 7.6853585948474876
3.7637301099259588 2.1730008101805840 7.6669231050362443
2.5091644044990264 4.3460713961718653 7.6526808166089832
1.2547191133795985 6.5191073101413490 7.6585865942742304
-0.0000539640915536 8.6917370355685328 7.6761209095865670
-1.2546061170147946 10.8647272912386192 7.6903892538955461
7.5276046239073775 0.0000103869775935 7.7004772022197852
6.2729722459197585 2.1729659743894536 7.6810158354142786
5.0183749994422255 4.3459423010697353 7.6671436013027572
3.7638882483241116 6.5188714015705953 7.6681835265996341
2.5088070181042741 8.6922165757870022 7.6835388920330514
1.2546280396788194 10.8647960304896039 7.7059455245165678
10.0367984679922433 0.0000307362534213 7.7194619772485416
8.7821937099220975 2.1729644319271086 7.6998380887578977
7.5275634166078422 4.3459283851322423 7.6852820803094257
6.2728852231199186 6.5189267837719376 7.6899233998414163
5.0185690374757304 8.6919224869096077 7.7022541922033350
3.7635820829109727 10.8644417688856318 7.7251665224707740
5.0182754424707632 13.0375779611482017 7.7234382500304841
11.2913727477939290 2.1729397188878887 7.7045421692570644
10.0367718479838164 4.3458763808001395 7.6896601546381458
8.7821332739354467 6.5188475649060438 7.6937422636596740
7.5275685546577735 8.6918199378202701 7.7107235621237553
6.2728130538770985 10.8646960108256891 7.7263035222462086
2.5093885663972704 8.6917935193932383 1.0050478707984571
3.7030785239408175 8.0026386134292089 1.0071441963469003
