rBN 3-layer slab
1.0
15.0551462173000008 0.0000000000000000 0.0000000000000000
-7.5275736112000002 13.0376828894999992 0.0000000000000000
0.0000000000000000 0.0000169606000000 10.0278787613000002
B N C
107 107 2
Cartesian
1.2520319807109479 2.1687584513790767 1.0019099460549217
0.0021002669639513 4.3512468197737411 1.0027915676378025
-1.2500782942983275 6.5211396623011471 1.0024876531199520
-2.5036329767723418 8.6926352203206303 1.0003037997868802
-3.7644011016366883 10.8649220410954310 0.9995342234135626
-5.0178645458752795 13.0373804593677978 1.0005126777610358
3.7642375211432673 2.1696047023106226 0.9994811692896949
2.5023290096669086 4.3283592728574316 0.9965557831892249
1.2715111675481066 6.5226967210440776 0.9955163814112034
0.0037011816609752 8.7047395210204250 0.9949605955637860
-1.2612041499838869 10.8685469091134568 0.9965578238536317
5.0179109140637408 0.0004327014951098 0.9995065160120348
6.2753490178041558 2.1698088091283765 1.0022797756669102
5.0190035726454676 4.3425930776530821 0.9975250239141698
3.7430122726582287 6.4965569412204678 0.9929049589726240
1.2452198198831077 10.8550556818410193 0.9948931345044478
0.0020406824295335 13.0324435915263095 1.0001946205153114
8.7832223705722079 2.1712583220534847 1.0081827895706430
7.5265934963101317 4.3470331975118519 1.0055238216990685
6.2635889739011024 6.5242607444636755 0.9968690197914416
5.0272893781833350 8.7209147444545554 0.9928427880188564
3.7689020533908701 10.8481573426942521 0.9953925364894689
2.5094562753389424 13.0326187237849798 1.0023378221464954
11.2908390187930436 2.1716485377858197 1.0107005209765714
10.0371818605168635 4.3456514340984524 1.0125667599255517
8.7806915049428671 6.5191178067044024 1.0055565998464360
7.5307418020040151 8.6928981906292240 0.9974964347697323
6.2847281086622111 10.8794398758114834 0.9964325533364224
5.0147932097267898 13.0331848600457700 1.0026602967635936
13.7989933267925906 2.1738438144937242 1.0070853171083101
-2.5083283995315711 4.3469902263870397 1.0107823205633042
-3.7617979063296829 6.5187701105680160 1.0082984827985118
-5.0144806401590314 8.6913000428509921 1.0023394995692565
-6.2698610770969454 10.8660123486562181 0.9994456946101424
0.0023428664604720 0.0043062872738024 1.0018495161833461
-0.0000537764161008 1.4486667444967745 4.3475070166141592
-1.2546021916767716 3.6214508652887254 4.3324373996741290
-2.5093166523159072 5.7942956683199816 4.3302025221052878
-3.7641733259671026 7.9673382511436621 4.3428910513668093
-5.0189165939726763 10.1403275500817429 4.3578874134815742
-6.2732932507011903 12.3133579388933239 4.3601771633257442
2.5090437924077200 1.4489135784078080 4.3601983193392666
1.2546081730084397 3.6216589167460631 4.3467212949850138
0.0001455241947321 5.7940725412788670 4.3370197924358775
-1.2546307608842155 7.9671530834473892 4.3410456761336613
-2.5095027932313547 10.1404384579268800 4.3545137096276001
-3.7641330457100248 12.3135673413084472 4.3640756643110237
5.0181968258414189 1.4491429517041785 4.3578416291087345
3.7637700276452803 3.6222862745009770 4.3527938538794784
2.5094628078828576 5.7949449849696499 4.3451966599718919
1.2556798684350963 7.9666454327935243 4.3424594828389171
0.0002884311170590 10.1402577610832232 4.3464906980347147
-1.2547644026475377 12.3136339439655984 4.3544514308803599
7.5275010477741402 1.4490403394219795 4.3427661049077528
6.2728311291730972 3.6222242034688517 4.3452917667259756
5.0182261036925579 5.7954014367487803 4.3451948640654807
3.7640002466976088 7.9673542723772606 4.3372288474254184
2.5104511980963715 10.1399003248965638 4.3423771844536345
1.2548589389047842 12.3135665667560090 4.3408989393474977
10.0369103524116312 1.4488617338719521 4.3300592732412051
8.7820522390324474 3.6218425747556782 4.3313573544237913
7.5271831772936846 5.7947545965423055 4.3390921477048554
6.2721449406801391 7.9671770917643050 4.3451768114523448
5.0181592940717135 10.1399829871169693 4.3450950436041964
3.7642547988208110 12.3134766192433975 4.3368495989487625
12.5460703622398277 1.4487078984486237 4.3323534689815792
11.2913240401976527 3.6216034458119255 4.3248581645631026
10.0364802460487645 5.7945013494502620 4.3314187430381565
8.7815383726040253 7.9672822141505470 4.3453372175080789
7.5269550077887564 10.1400865858930835 4.3527573855352122
6.2729177077075020 12.3133229731997300 4.3466142570642949
1.2545050659052333 0.7243762331851588 7.6752711532623001
0.0001511439458214 2.8972813568747680 7.6855715100947339
-1.2545034097864201 5.0699484706341682 7.6928917481519123
-2.5093921438772040 7.2428765178955814 7.6899154806482928
-3.7642234047772734 9.4160079460077615 7.6796820525785261
-5.0187682250297065 11.5890436987668615 7.6722105764732200
3.7636058451363965 0.7246616831990850 7.6722225484497653
2.5093076843327564 2.8976684488063240 7.6801722308819862
1.2550797389723423 5.0703904329920384 7.6926182911386753
0.0003814518842745 7.2426599306037618 7.6958395426814903
-1.2546724242873437 9.4159379138813826 7.6882067710461692
-2.5094849301570994 11.5892260249585686 7.6760754934913438
6.2728477524192225 0.7247509056572902 7.6798301677225949
5.0183257561968206 2.8979374690923887 7.6807320292948109
3.7641311789628511 5.0711968253119002 7.6886819970662712
2.5106646700627659 7.2437130438856929 7.6974328014185245
1.2558988486236446 9.4153600032009237 7.6944121307457580
0.0001118011341967 11.5892104661792441 7.6883439104257070
8.7823174282575014 0.7246405240703276 7.6901885921840423
7.5274628897729512 2.8977376057215762 7.6869501357371295
6.2727371605997124 5.0708097073710530 7.6895210606552000
5.0179931996723974 7.2433914291292325 7.6944797671497049
3.7640493303192959 9.4145658333957254 7.6975632109409267
2.5098193636305632 11.5889826969803860 7.6961008017858594
11.2916394394130979 0.7243791007727023 7.6931580930451116
10.0367761822443278 2.8974444955553391 7.6923914554212427
8.7818777337004139 5.0703840041351018 7.6904928804622621
7.5269392590183655 7.2430754778187669 7.6895167587656337
6.2723028781864691 9.4153250620836708 7.6888099534071248
5.0184782638340417 11.5885542416952028 7.6928737750837168
13.8006183010020855 0.7241896835000227 7.6856978775122906
12.5460484892379771 2.8972173092823965 7.6916856966837823
11.2912140496246316 5.0701185749259698 7.6922559252977010
10.0363026811329732 7.2430237971070017 7.6868058488623232
8.7815616920901789 9.4158244568634935 7.6807137180246015
7.5272861634690056 11.5887610400523382 7.6802857636556672
-0.0018623696102278 1.4497139220445721 1.0067648173738506
-1.2535684015382749 3.6250687923433951 1.0105777792043680
-2.5048546503195186 5.7968087220141280 1.0111549048125554
-3.7569296986010445 7.9677925267336063 1.0066886305618683
-5.0156411191066166 10.1404385209643575 1.0028141779140780
-6.2717916758519783 12.3148987676634434 1.0030175472892864
2.5084654315325747 1.4468495836169750 1.0030603820846773
1.2479583920352741 3.6144151148101979 1.0027387638024019
0.0077960777219080 5.8077432241204914 1.0025785683729525
-1.2416022455821589 7.9707588507010563 1.0012046797418728
-2.5088488405374001 10.1403699623349404 1.0007635472032823
-3.7628677962028365 12.3128437378275741 1.0020241812100923
5.0197434196152395 1.4462596618786216 1.0027892656233588
3.7623954881732415 3.6147972459417534 0.9997073073640745
2.4953181101499302 5.7704868558474125 0.9959565622566303
1.2828296133836241 8.0015419622626549 0.9965923806199236
-0.0060060372638445 10.1438922861141823 0.9966298547273775
-1.2543758424798053 12.3131062106534959 1.0007066870052677
7.5307301054417479 1.4425462616005311 1.0065718082512702
6.2749026162645105 3.6166828560605859 1.0044892620293546
5.0133973550208513 5.7859031437440329 0.9966025440887629
2.4938008405246941 10.0989506749545566 0.9965343064476743
1.2582495621834504 12.3004863652651224 1.0010752840792974
10.0369608469524909 1.4437487898659958 1.0110111272822440
8.7828508047569116 3.6202266671858885 1.0132921121218958
7.5244037558980557 5.7963636279467314 1.0056626566439952
6.2779606587706240 7.9761139222990405 0.9965733175948415
5.0322677678775403 10.1644623441028852 0.9958227021061855
3.7562341704211377 12.3000277141747407 1.0024254586296883
12.5434556829915849 1.4460133872318621 1.0104893127966237
11.2923197592154434 3.6210329982834133 1.0167344690182092
10.0382848873897412 5.7946230276749331 1.0133565116355521
8.7873784023716652 7.9682656783891339 1.0045187226230456
7.5327568554281612 10.1450276748636341 0.9996341267805441
6.2758680706080456 12.3227073634020723 1.0026121827646819
1.2545213431095268 0.7243725643443570 4.3607329046556638
-0.0001060851921626 2.8972513546778353 4.3440624879749894
-1.2547063677450692 5.0701353470740393 4.3331205241883932
-2.5091590410628664 7.2431913787140401 4.3387680287433774
-3.7638026954484403 9.4161579726920142 4.3555465730900247
-5.0184528071432020 11.5890993804737299 4.3665264770034939
3.7637191086116482 0.7243682998291631 4.3665155003396707
2.5090733847089286 2.8973190457274174 4.3573612476365131
1.2543353106727508 5.0701094343790754 4.3447455889665498
-0.0000879655227678 7.2430875750999499 4.3402059950509653
-1.2545340111072654 9.4161258572568833 4.3494628537077258
-2.5092215499911843 11.5890830977933490 4.3624146686711613
6.2729351474094655 0.7243243707258729 4.3554511868591135
5.0182951434782384 2.8973345156462451 4.3561029722133586
3.7635785150859222 5.0702948405104049 4.3506815694930738
2.5085126506612623 7.2428324179365235 4.3469509238221935
1.2546738824828483 9.4160699111085115 4.3424666738789082
0.0000256460434277 11.5890102969052382 4.3493788181394608
8.7821706462249498 0.7242943149347707 4.3385994034954969
7.5275588645021010 2.8972435129265088 4.3415248119780401
6.2729295084256664 5.0702489492355989 4.3460629166641542
5.0184285441478771 7.2431450080363948 4.3490096713882185
3.7637411869376614 9.4168781382544626 4.3468814738088470
2.5092192715499158 11.5891848764805943 4.3400454761824001
11.2913855959651599 0.7244693492497742 4.3329602240187457
10.0368200007137904 2.8972509253508996 4.3282457827491543
8.7822248980454098 5.0701915782966660 4.3347251695764228
7.5275269123151078 7.2431996473616804 4.3460750454869759
6.2728119726953810 9.4162645675528687 4.3506211572132720
5.0183509050214283 11.5893500979802742 4.3445935548397703
13.8005210002422167 0.7244355871615037 4.3439847871653523
12.5459450066835831 2.8972841752704777 4.3294196080100820
11.2914086314074904 5.0701908685672166 4.3283277998899958
10.0367861895377111 7.2432005536414890 4.3416185245007268
8.7820736478678434 9.4161638184574645 4.3561330805557468
7.5274780129840657 11.5891471620317699 4.3572964127381990
7.5274797399894053 13.0376874472019058 7.6818312171823555
-1.2545940579586634 2.1729657321184317 7.6902452265355192
12.5459915725688020 4.3458447239029390 7.6956962642336144
11.2913878027302772 6.5187583604085262 7.6925317698050684
10.0367709724691672 8.6917370996204699 7.6839468632292283
8.7820858789055922 10.8647308201331452 7.6785210785877913
2.5091467048475384 0.0000425402095597 7.6731852293135816
1.2545622633082469 2.1730536117333350 7.6817401836311889
0.0000469971301559 4.3460109729519445 7.6935391908752697
-1.2545820931652014 6.5187562472381799 7.6967367826561039
-2.5091519058678671 8.6917032757858586 7.6887066293736632
-3.7637783610025730 10.8647113332334282 7.6764551715841067
5.0184219729452186 0.0000290021173038 7.6765217785550215
3.7637654820476416 2.1730444837410636 7.6784941083069871
2.5091752081488190 4.3460999633660915 7.6901448560105239
1.2547671265038614 6.5191532471897773 7.7018475136777766
-0.0000055558888286 8.6917051942476338 7.6990877962685147
-1.2545284875761424 10.8647143743954739 7.6868154650199614
7.5276816609491135 0.0000343505963963 7.6889331470504123
6.2730389211186495 2.1729916429131473 7.6840767370824938
5.0184143059902091 4.3459403586299210 7.6884221705423608
3.7638480282170046 6.5187739071455084 7.6930686703677003
2.5087104301066909 8.6920854858979322 7.6955872784875261
1.2546810841700511 10.8648092217013215 7.6992480203816598
10.0368602669931981 0.0000587781041315 7.6970585707181831
8.7822687875041758 2.1729889651610597 7.6927536289906353
7.5276270642168193 4.3459231716972386 7.6914252552568128
6.2729105440080959 6.5188967542005649 7.6944364083990235
5.0184872071054167 8.6918014362509943 7.6931811645708343
3.7636200846679246 10.8644622492638874 7.7020980964171573
5.0183206241090454 13.0376121055848060 7.6937964633694982
11.2914362865857605 2.1729679885428688 7.6958576876130600
10.0368439140026311 4.3458643725317305 7.6948035942476132
8.7821844736591714 6.5188043424193856 7.6913626368699575
7.5275651130130576 8.6917633291241856 7.6884613993940709
6.2728083663896337 10.8646751530119268 7.6903372339666731
2.5093688474312099 8.6916859552965473 0.9956672657527281
3.7030357673389225 8.0025495696420226 0.9960415404698326
