rBN 3-layer slab
1.0
15.0551462173000008 0.0000000000000000 0.0000000000000000
-7.5275736112000002 13.0376828894999992 0.0000000000000000
0.0000000000000000 0.0000169606000000 10.0278787613000002
B N C
107 107 2
Cartesian
1.2519340642101686 2.1688206382675115 1.0012749976822366
0.0020041170143813 4.3512763732315740 0.9997557924920757
-1.2501065636287423 6.5211047493121468 0.9996891552459811
-2.5036316638847822 8.6925787820850360 1.0035491587625114
-3.7643938337138039 10.8648911363947498 1.0058364342171937
-5.0179141040160200 13.0374063856578317 1.0039909321467568
3.7642271529796059 2.1696607033889319 1.0061143097277556
2.5022799226563195 4.3284235360932515 1.0118682841880260
1.2714466705420020 6.5227179284411658 1.0155922403446007
0.0036758443567476 8.7046847316211746 1.0140263040958097
-1.2611430101116676 10.8685125873557507 1.0109925088187921
5.0179415718813241 0.0004418210606474 1.0058921876298303
6.2754172288990500 2.1698298626024766 1.0003685474240736
5.0190496571179244 4.3426293974261210 1.0099500726968484
3.7430190995613173 6.4965759150092497 1.0220402073046719
1.2452571953518030 10.8551016354833987 1.0141628042389892
0.0020916025884952 13.0324687629328313 1.0037674227116462
8.7832888320878784 2.1712704845467869 0.9884531499821956
7.5266789670048935 4.3470154326777166 0.9942774084910100
6.2636310435352129 6.5242308045871455 1.0118468074600397
5.0272689929712886 8.7208933867819916 1.0221647424651488
3.7688495918966196 10.8481973483798466 1.0158447848359180
2.5094721478951980 13.0326588198829967 0.9999974345834253
11.2908126511022804 2.1716855111221403 0.9836249085079712
10.0372293619496133 4.3456215991503004 0.9798774190153248
8.7807455576463731 6.5190481640179607 0.9942123753973037
7.5307270231201420 8.6928335826041927 1.0100088132746130
6.2846448869010665 10.8794442149871902 1.0121175820190249
5.0147166132021788 13.0332487299416329 1.0000239893834564
13.7988806518304248 2.1739062627976096 0.9909794148290691
-2.5083750655719412 4.3469936131753739 0.9834613854880117
-3.7617777867483722 6.5187037292718024 0.9882198550409717
-5.0144681473415478 8.6912277821693671 1.0002477190914381
-6.2699170273735065 10.8659888373840641 1.0061835016986276
0.0022365113822929 0.0043540017453987 1.0014025222776723
0.0000794388981280 1.4485844512324475 4.3373365067297129
-1.2544844784352871 3.6213789819103241 4.3674915387879985
-2.5092446477908927 5.7942781709907374 4.3719204572661532
-3.7641433581405432 7.9673705131111516 4.3464448221278875
-5.0188761738957535 10.1403532743630258 4.3161570629376778
-6.2732063850770707 12.3133230405096548 4.3113975846317496
2.5091138005614417 1.4488507909734107 4.3113548488345961
1.2547197761926761 3.6215676440039930 4.3389681012961283
0.0002610131719409 5.7940067247386651 4.3586026020630486
-1.2545638267343646 7.9671459875412998 4.3511831417769242
-2.5094810584238552 10.1404537220178614 4.3239545879846952
-3.7641036351003980 12.3135533462922151 4.3038403447021834
5.0181932223436974 1.4490943453637717 4.3162504880043127
3.7638097503416845 3.6222265519934922 4.3251490399262540
2.5095402234117739 5.7948710044229061 4.3422789071136085
1.2557950104656490 7.9665714182889715 4.3503265771006534
0.0003387794613119 10.1402189770266649 4.3408556078629905
-1.2547720598294250 12.3135980822667879 4.3240814542603934
7.5274806665261167 1.4489888231886419 4.3466963980570998
6.2728111680398397 3.6221933582057435 4.3406506737406483
5.0182488833837819 5.7953774146707042 4.3385269268272291
3.7640442202189925 7.9673202089069148 4.3360775882581795
2.5105645744170668 10.1398239099553926 4.3504899128708923
1.2548898314413830 12.3134979072283173 4.3514754024964626
10.0369515530904927 1.4487962839476365 4.3722134908806298
8.7820350301285348 3.6218197514073265 4.3690584248619473
7.5271652766214041 5.7947590168540328 4.3527605123610433
6.2721720452866583 7.9671582929587377 4.3385629264406544
5.0182560509306278 10.1399402852431830 4.3424810540025272
3.7643624292286981 12.3133979875228601 4.3589390237773840
12.5461854930989194 1.4486342274551225 4.3676627301407143
11.2913743010692524 3.6215671972419101 4.3823901754702153
10.0364847900652219 5.7945160841654166 4.3689345716590129
8.7815527980616679 7.9673077099017187 4.3405587221858264
7.5270232911794634 10.1400724142708203 4.3252223211823830
6.2730470504417353 12.3132622957809765 4.3391821492967360
1.2544229264942051 0.7244219452611967 7.7101884240976908
0.0000391287876557 2.8973412779368188 7.6894415008429808
-1.2546099486601889 5.0700429842171770 7.6742649823894586
-2.5094799924918032 7.2429675861715426 7.6798595740693969
-3.7642894814994325 9.4160697737800305 7.7010715406668053
-5.0188224078753381 11.5890927549114942 7.7160999195955435
3.7635395515834191 0.7246925256666420 7.7160755253472839
2.5092314874654176 2.8976977778847606 7.7004255919669991
1.2549810485223594 5.0704273685686614 7.6779378794738369
0.0003087021285040 7.2427429275902373 7.6689457572742930
-1.2547377395443728 9.4160081529176960 7.6841728626697181
-2.5095599950979719 11.5892743081770675 7.7080052106461991
6.2727668344534795 0.7247829432709672 7.7007776707026148
5.0182491833941567 2.8979648445283450 7.6992066919284108
3.7640535808265683 5.0711895225896280 7.6812357687768928
2.5105594071836448 7.2436335573839576 7.6661755947257664
1.2557957579845873 9.4154179666042346 7.6641302694070177
0.0000212655876003 11.5892352885151997 7.6838963124853725
8.7821988209849380 0.7246742772492402 7.6793122450342484
7.5273608536344332 2.8977836778207546 7.6868020222648843
6.2726533972115073 5.0708515434743227 7.6834305980186635
5.0179464186290410 7.2434131900544418 7.6736463243913020
3.7640614730720290 9.4146867165339270 7.6659132660964122
2.5097102941133596 11.5890021694709819 7.6684219225836694
11.2915061821694884 0.7244219069524234 7.6737357040328043
10.0366432161909493 2.8975089200973247 7.6757376768544754
8.7817686676928659 5.0704518491733266 7.6800270148230396
7.5268625852848130 7.2431326457175977 7.6834445904450988
6.2722668435171265 9.4153916021906365 7.6809879599761111
5.0183925105829310 11.5886135505049896 7.6774385302616466
13.8005087476184745 0.7242507706543930 7.6891921910895249
12.5459113267818587 2.8972959467669872 7.6772495793937399
11.2910938160958718 5.0702075002957736 7.6760091033057360
10.0362136994672611 7.2430969868127715 7.6870888325136679
8.7815017546163201 9.4158840763816762 7.6992463597987717
7.5272233974202498 11.5888087928782557 7.7002020227582655
-0.0019705505304821 1.4497712404008252 0.9992926647570581
-1.2536159795929902 3.6251364921509071 0.9916345789595219
-2.5047990206161179 5.7968251378273008 0.9900916088616393
-3.7568880141531911 7.9677446298605137 0.9988819334572329
-5.0156757083467705 10.1403832045151283 1.0069942001451193
-6.2718923659163828 12.3148921430030303 1.0066049099536312
2.5084181877555749 1.4469342972033987 1.0065201034678768
1.2479140925382202 3.6145324106893346 1.0070663018939590
0.0078041144471636 5.8077970730918684 1.0080782065967342
-1.2415473931383165 7.9707357629559521 1.0088232744060164
-2.5087712056148992 10.1403210995122937 1.0107624568225968
-3.7628615637981269 12.3128398866612550 1.0085133248544937
5.0197734836261390 1.4463154032881875 1.0070452152924767
3.7623895997357022 3.6149306499794442 1.0131625655082275
2.4953091332033863 5.7706064323032855 1.0212942715913640
1.2827849104579740 8.0015239157166960 1.0209462052002547
-0.0058783866323215 10.1438198622357127 1.0180429238306548
-1.2542932382146297 12.3130651515761951 1.0108749034779443
7.5307930007192914 1.4425307549631188 0.9991205581762260
6.2749310368545785 3.6167342312767321 1.0036793975927549
5.0133744325833716 5.7859766210799553 1.0190950072350273
2.4937953820422880 10.0989930110471562 1.0210663939524278
1.2582987852426091 12.3004480827253175 1.0090834708987999
10.0369740167121257 1.4436893526727099 0.9903801343744486
8.7828836731779667 3.6202131944717335 0.9860371789122371
7.5243937095297078 5.7963649177111307 1.0018596790858403
6.2778776603642656 7.9760895153900462 1.0191561575320636
5.0321563575631911 10.1644051467251000 1.0215621230215690
3.7561892616876551 12.2999889021734372 1.0083891003176817
12.5433701541761522 1.4460148249359823 0.9918010535479741
11.2923253235987442 3.6210273299642259 0.9792623323295513
10.0383090526349488 5.7945973196390410 0.9859085209408375
8.7873428594662926 7.9682116912987810 1.0036223414726360
7.5326349906335164 10.1449610488695399 1.0133100366074452
6.2757398788543748 12.3226805965763813 1.0073248524888427
1.2545339112463463 0.7243609406719278 4.3173858738061188
-0.0001182053006921 2.8972159266519215 4.3509836194092468
-1.2547125528982777 5.0700573508935847 4.3725179440883766
-2.5091308212899572 7.2430801271368495 4.3608100358484512
-3.7637519309657250 9.4160714071339147 4.3277571630575418
-5.0184120588079173 11.5890678396257769 4.3057372233387881
3.7637698669441240 0.7243563854973548 4.3057595113031448
2.5090921273516900 2.8972856747455706 4.3237905244049122
1.2543392631853414 5.0700268719136874 4.3499153340587426
-0.0000657570180632 7.2429934155595586 4.3567722368650070
-1.2544758210532658 9.4160463886828047 4.3392143221954846
-2.5091553712026484 11.5890402427562087 4.3136471784528077
6.2730300050984331 0.7243155204412406 4.3279515284910026
5.0183824022990775 2.8973134510845697 4.3265703892029821
3.7636212137958220 5.0702459415209971 4.3367942243180613
2.5085318430136176 7.2427429393878882 4.3498759115291463
1.2547602891966365 9.4160114422880117 4.3475063984847120
0.0001161201323493 11.5889863379253963 4.3393837167898557
8.7822709945606441 0.7243118500055261 4.3611475701437046
7.5276701405271149 2.8972339207007960 4.3559119910095623
6.2730248762123910 5.0702032104994563 4.3475193307412754
5.0185113902030292 7.2430900522439607 4.3447401696096106
3.7638209683557142 9.4168928977547921 4.3500118484743080
2.5093045844133961 11.5891999634662977 4.3570912778630264
11.2914427455288013 0.7245030915765768 4.3728391228028061
10.0368890827568613 2.8972485219631188 4.3824529220766753
8.7823107317274349 5.0701347103215451 4.3697204547438977
7.5276107931153469 7.2431316792840281 4.3474946029689656
6.2728711606845931 9.4162412976912151 4.3369145680913421
5.0184175197596232 11.5893760494568365 4.3502180225277272
13.8005400493521577 0.7244547539999410 4.3511392001376814
12.5459487271145615 2.8972759844462832 4.3801568461221683
11.2914384816455957 5.0701200931036494 4.3822853161730526
10.0368453182019799 7.2430985601089093 4.3557217307220331
8.7821349656119718 9.4160938312897411 4.3265098063894074
7.5275106539184078 11.5891376978484093 4.3239209927897555
7.5275133201352826 13.0377083146792465 7.7053031867527313
-1.2546122413526828 2.1729745816527002 7.6884011225719062
12.5459063376747153 4.3459350939653758 7.6773775129710948
11.2912694652824790 6.5189379511901224 7.6834229482293308
10.0366937293323382 8.6919208222801938 7.7006343198505114
8.7820989827308598 10.8648404674719696 7.7111992489968015
2.5091083034820989 0.0000689379341170 7.7223815664110411
1.2545572373710778 2.1730123972730779 7.7054842472333895
0.0000060937379209 4.3460131533877071 7.6821471814298352
-1.2546668762181599 6.5188898951581917 7.6749936377317658
-2.5092755196399095 8.6918868529786337 7.6921333474500821
-3.7638865384526685 10.8648478971820417 7.7157696509675420
5.0182533585823554 0.0000622180500047 7.7156379056980624
3.7636779944351453 2.1729897172077153 7.7112498919858687
2.5091414659568922 4.3460314709448902 7.6890686848473981
1.2547029144093231 6.5191529839397253 7.6722068775848040
-0.0000934580879177 8.6918271166819725 7.6741770558468740
-1.2547132769397147 10.8648230461069666 7.6964437199676139
7.5274639196327966 0.0000531255215127 7.6916798296390034
6.2728455516537505 2.1729729672780693 7.7003770815897354
5.0182982028636154 4.3458951586230530 7.6903794166250430
3.7638252552664881 6.5187140481890156 7.6699502163557112
2.5087664037736928 8.6920448741514491 7.6594021397894849
1.2545299619859578 10.8648218308270419 7.6738524766070189
10.0367034378024496 0.0000652742124370 7.6743495591673661
8.7820591402657513 2.1730075811010665 7.6829795498064390
7.5274553858164754 4.3459604586082445 7.6855014239077883
6.2728314864795678 6.5189438109016367 7.6812258340013164
5.0185230030141659 8.6918372836906741 7.6697275629466990
3.7635813659969424 10.8645067326821714 7.6717082140689543
5.0182982676578449 13.0376409018475350 7.6816396462139096
11.2913176547376182 2.1729976964177338 7.6770551343077820
10.0366850452373182 4.3459618535343534 7.6789403674471544
8.7820700759201653 6.5189421007599542 7.6856254905475589
7.5275483579415994 8.6918903842435071 7.6903112327337668
6.2728502707330387 10.8647332875544755 7.6886893406412691
2.5092692822598051 8.6917388956708841 1.0237520481184363
3.7030067838831524 8.0025612379490223 1.0287091910712951
