rBN 3-layer slab
1.0
15.0551462173000008 0.0000000000000000 0.0000000000000000
-7.5275736112000002 13.0376828894999992 0.0000000000000000
0.0000000000000000 0.0000169606000000 10.0278787613000002
B N C
107 107 2
Cartesian
1.2518448473362371 2.1688593655220290 0.9918206710557917
0.0019724950136267 4.3512168693707283 1.0053995602265415
-1.2501043370564580 6.5212166920906256 0.9795458777022988
-2.5036502973288774 8.6927263538279824 0.9878383575199691
-3.7644278609558763 10.8648830688807525 1.0080311810838452
-5.0179899342323502 13.0374509401071474 0.9887204062764060
3.7642348966471073 2.1696941010329320 1.0055107561933785
2.5023085798592830 4.3283596206010193 1.0401234887807724
1.2715092242434938 6.5227656130432701 1.0080006004302986
0.0037533992207397 8.7047740085068437 1.0067942510207839
-1.2611112841053698 10.8684931085031540 1.0402490564118010
5.0179266439635830 0.0004737067508213 1.0077000981115958
6.2753000635822707 2.1697458748913228 0.9785891993745105
5.0189813116043069 4.3425003559612927 1.0056931719471223
3.7429187871519085 6.4965838708255452 0.9904783854850572
1.2452151814344325 10.8549910542464296 1.0068167585552465
0.0019493417124422 13.0324128114786095 0.9875918412346396
8.7831204950726516 2.1712564804965826 0.9896351076645119
7.5265471381619991 4.3469314336218723 1.0082742793934083
6.2635345039402512 6.5242912038570005 0.9858049656043119
5.0272198228899292 8.7209779751480685 0.9907389412932038
3.7688411593856856 10.8481196491522649 1.0082595255850826
2.5093736630631729 13.0325999167319182 0.9795836851656108
11.2907685843573784 2.1717523040910978 1.0088831634555218
10.0371441466859110 4.3456673407200750 1.0421415106852625
8.7807543602706382 6.5192016804274289 1.0079883076262222
7.5308131259674305 8.6929590210334347 1.0056289730346097
6.2847182560636830 10.8794490014569689 1.0400901667263187
5.0147520375163221 13.0333032144366250 1.0051156178344764
13.7988045509343884 2.1739473184172815 0.9833217306179604
-2.5084570735497382 4.3469904780039439 1.0089060967572017
-3.7618478019236510 6.5188512072755742 0.9893920563186832
-5.0144490718590546 8.6913646121773134 0.9786123925632852
-6.2699364442584242 10.8659632800615569 1.0055525555521232
0.0021601832776004 0.0044088123442563 0.9915440340258750
-0.0001140691163549 1.4486991537695666 4.3316585706563169
-1.2546156872412590 3.6212880447975366 4.3407767694142878
-2.5093723200684304 5.7942431616729015 4.3392195302050141
-3.7642627635766668 7.9674250662625381 4.3331321750262681
-5.0189597520122575 10.1402119358178826 4.3414443210644276
-6.2733621859998090 12.3132862180243059 4.3382504658215231
2.5090720779639981 1.4490110819785669 4.3382506711248201
1.2546290203295676 3.6215897361289917 4.3529935298862572
0.0002313196932109 5.7940320193356811 4.3436862383054473
-1.2546011679192484 7.9672685830672201 4.3393341000317776
-2.5095003854031130 10.1403952348440427 4.3525046159887211
-3.7640788698157559 12.3135405928267865 4.3422946982590149
5.0182764473349968 1.4492402563097264 4.3413319253985296
3.7638478334763135 3.6222299171761851 4.3571613731112304
2.5095597804529368 5.7949361081669810 4.3530039155510520
1.2558217378882579 7.9667439308954204 4.3420555661338867
0.0003659631027880 10.1402086949303456 4.3570194091839136
-1.2547268324769003 12.3136517937435421 4.3524019817549631
7.5273818178064893 1.4490724578776173 4.3331380743638821
6.2727880773661226 3.6220580098389261 4.3409593963665172
5.0181871689909876 5.7952925683124095 4.3372265473405331
3.7639695436172320 7.9673664612595241 4.3252276084202226
2.5104326927617380 10.1397192165759638 4.3421689164452788
1.2547722950895766 12.3134793450730573 4.3393459209844014
10.0369278740054586 1.4489330141211623 4.3392109170994262
8.7820585683091394 3.6217584842427972 4.3523408910867722
7.5272629467066778 5.7947069631864165 4.3413729421159664
6.2722175436060965 7.9672605595693593 4.3372257039573414
5.0182120611703116 10.1398943047231409 4.3531140814600393
3.7643302067609512 12.3134168479471438 4.3436859838679789
12.5462017403888080 1.4487962139120771 4.3406526006028123
11.2914126104664021 3.6215491562148210 4.3566490546979297
10.0365523690907406 5.7945344967151620 4.3522330083453369
8.7816589546075665 7.9674008048347496 4.3408495070285316
7.5270408819744556 10.1400428489162255 4.3571646959247685
6.2729837946604752 12.3133332723156368 4.3528807091906518
1.2543634598747446 0.7244599384075721 7.6740308922100926
0.0000405431724937 2.8972773456966565 7.6779381851022555
-1.2545741451051646 5.0698955721333681 7.6853732722444450
-2.5094969290292006 7.2429826261747428 7.6743828536447998
-3.7643158640662606 9.4160100681173819 7.6780810087582045
-5.0188636035886551 11.5889764793054635 7.6849014704440917
3.7636204589148137 0.7247850321502943 7.6847179157552361
2.5092995696756928 2.8977602743449213 7.6977106380521185
1.2551152717241105 5.0704400182343763 7.7054501366605788
0.0004633976613663 7.2428126386793084 7.6852934684463214
-1.2546298835914824 9.4159965210511167 7.6980083142378080
-2.5094699439802279 11.5892220472612859 7.7042344610230691
6.2728050300237950 0.7248355077935300 7.6779197553240968
5.0183199770934479 2.8979402182864011 7.6822537720607800
3.7641102985039536 5.0711968395103808 7.6971853418943796
2.5106857035468266 7.2438423868159170 7.6771681386396482
1.2559683162032249 9.4153223630247265 7.6787535092939914
0.0000862908873208 11.5891488905659479 7.6980370125547060
8.7821787806947853 0.7246830663970216 7.6743721955378534
7.5273546724312084 2.8976963409362413 7.6779458207974161
6.2726782326441795 5.0707123730133556 7.6863222400747242
5.0179155692928470 7.2434340599981093 7.6748010511765443
3.7639496324311934 9.4144812751958842 7.6773568122112694
2.5097331636900311 11.5888387104566899 7.6855080283422845
11.2916544480718173 0.7244702079235519 7.6851645662578605
10.0367627973023303 2.8974778476812122 7.6971485088134868
8.7819058143684590 5.0703706594459774 7.7040636401400109
7.5269953308186155 7.2431801841344168 7.6861265831168177
6.2722906242822409 9.4153401676996964 7.6971759964234270
5.0184543572231792 11.5884988019121042 7.7054759001694038
13.8005675807531816 0.7242893731806741 7.6777625311095541
12.5460372118083843 2.8972259487525278 7.6818861788349189
11.2911780119283378 5.0701183504734564 7.6971901516979422
10.0362843378072935 7.2431453402671098 7.6777753638302260
8.7815569482964015 9.4158332071070063 7.6822450636854214
7.5272022085018344 11.5887220255076659 7.6977405036343010
-0.0020665183520506 1.4498248710816510 0.9682091605577205
-1.2537101804987614 3.6251049524055263 0.9948731113266649
-2.5048876576317856 5.7968725984016958 0.9858302484279791
-3.7569058830556168 7.9678836965668509 0.9642856273877397
-5.0156783612073372 10.1404383403918246 0.9906694000739421
-6.2719487336559405 12.3149318805668475 0.9909041583877110
2.5083529901052835 1.4469658676451362 0.9910310345754236
1.2478819716189278 3.6144805327449077 1.0299675090658078
0.0077667779296875 5.8077839813670904 0.9997134526768934
-1.2415745197742465 7.9708658091197817 0.9834392890048003
-2.5088208897730193 10.1403921809827100 1.0309394885315670
-3.7629247167457911 12.3128739820459181 1.0091540121791187
5.0197168497234905 1.4462885029284582 0.9902987047385582
3.7624005915893077 3.6148487210629603 1.0380800219625752
2.4952755379815934 5.7705236063795606 1.0356945682256526
1.2828007831901140 8.0015634116463357 0.9947246556977347
-0.0058974861893125 10.1438286424062500 1.0442008043387061
-1.2543843137585799 12.3130724641243869 1.0304745000784516
7.5306560776358618 1.4424783751504417 0.9642705651692657
6.2748526621516820 3.6165783478404556 0.9920295403211639
5.0133053153037777 5.7858928425056559 0.9886781473066885
2.4937666669070153 10.0989634534735409 0.9949344798731786
1.2581676345757926 12.3004084241235390 0.9833737220580727
10.0368829040727299 1.4437409954730291 0.9859678829537446
8.7828025746943048 3.6201885289854703 1.0325259513896872
7.5243841344172457 5.7963718008369840 1.0070124353375047
6.2779251368722733 7.9761970142894656 0.9887900565449143
5.0322147180160552 10.1644754977628171 1.0361265495867218
3.7561812208028171 12.3000280150290155 0.9997299415127924
12.5433471751471259 1.4461096427418694 0.9945848322578323
11.2922478982304799 3.6210685722700129 1.0466367984861684
10.0382910702087607 5.7946756785967422 1.0321166896461409
8.7874443288687818 7.9683536656369567 0.9917030425269532
7.5327190585186345 10.1449928402886389 1.0380390279791518
6.2757703910497966 12.3227327215760276 1.0294894079690280
1.2544683354423705 0.7244033910791697 4.3272918975937040
-0.0001522390712997 2.8972081499488076 4.3392783577538721
-1.2547242730898622 5.0700592832953975 4.3399709164738889
-2.5091927483549248 7.2432040032888061 4.3287553832974881
-3.7638334133818314 9.4161054971629667 4.3401271097540919
-5.0184759635067291 11.5890288866459805 4.3394377062081348
3.7637721546144944 0.7244310127968698 4.3393250713332714
2.5090928258575551 2.8973377543902079 4.3600750945055387
1.2543679478922716 5.0700914600425300 4.3620084233164897
-0.0000242749256733 7.2431191062347589 4.3394141853827541
-1.2544928758073151 9.4161076696772170 4.3590153280042188
-2.5091713268976195 11.5890542197195234 4.3601758569488949
6.2729653830675662 0.7243760400675051 4.3399476689212904
5.0183542687486229 2.8973071417027554 4.3504304162871330
3.7636273417665067 5.0702492632909593 4.3598176691906332
2.5085964151512283 7.2428885945843531 4.3410026951163481
1.2547237879534263 9.4160362530866468 4.3474694206520841
0.0000600631575945 11.5889795832356857 4.3589548074815374
8.7821432599002982 0.7243139450317513 4.3287621085034429
7.5275569973365366 2.8971828665472410 4.3403315181407578
6.2729704185071382 5.0701442357610746 4.3390661022091441
5.0184585231903798 7.2431240277760089 4.3290620969043703
3.7637299130120843 9.4167675951304641 4.3411738154050274
2.5092210926955296 11.5891068500110777 4.3395342316660823
11.2914408791347149 0.7245172802443741 4.3398421795680564
10.0368691069489362 2.8972306228372093 4.3598545724951370
8.7823116882013625 5.0701389175708318 4.3602460482005645
7.5276368133166081 7.2432138164698330 4.3389562191218012
6.2728740102539868 9.4162396419151886 4.3598935308258557
5.0183781278711628 11.5893223582199685 4.3620201426082188
13.8005325509183940 0.7244914968249675 4.3390798736286689
12.5459863118854198 2.8972569801696162 4.3490835364084761
11.2914477963901501 5.0701552540772239 4.3597906673491673
10.0368355949080019 7.2432300719116727 4.3401438945879631
8.7821271461478680 9.4161254623754260 4.3504373433921382
7.5274711861118497 11.5891185223490893 4.3599979130839364
7.5274183490611115 13.0376911410394314 7.6808024984617100
-1.2546246198398585 2.1729853502760670 7.6681858019723288
12.5459410943224370 4.3458228647543047 7.6921092435459784
11.2913125728870511 6.5188316920336868 7.6807831562600724
10.0367258513715552 8.6918279351810668 7.6683263796407823
8.7820247928866788 10.8647237535109973 7.6919235648009696
2.5090964664094404 0.0000761239172316 7.6793101372968691
1.2545289496466281 2.1731070019060010 7.6808958781409835
0.0000485983999578 4.3459969415164847 7.6963553733679833
-1.2545948353728023 6.5188342757493842 7.6802432966917697
-2.5092046451458434 8.6918305804381575 7.6817826087993781
-3.7638289854129465 10.8647388950469459 7.6957073833934260
5.0183772266008857 0.0000661300527135 7.6954286468372883
3.7637436533076105 2.1731076638132971 7.6917360745581753
2.5092094627040682 4.3461248732903037 7.7212263058331496
1.2548553665149833 6.5192685749396801 7.6980733818980136
0.0000522779673059 8.6918186719899637 7.6931637004098459
-1.2545674155199003 10.8647402188493949 7.7216812469769351
7.5275499249164826 0.0000211604864815 7.6816940186651781
6.2729428186104119 2.1729902496861531 7.6683393177043637
5.0183561421691083 4.3458751306028400 7.6921812874037396
3.7638155515839946 6.5187218966203417 7.6762553029571237
2.5087230911141933 8.6920783454971531 7.6603233408240810
1.2546152353479307 10.8647057642157225 7.6933809707453378
10.0367911108931409 0.0000351160186037 7.6802400227473635
8.7821735471226035 2.1730218520488882 7.6808515989433124
7.5275894920181221 4.3458767627298451 7.6957273577173160
6.2728993657054177 6.5189051724075382 7.6808549270404605
5.0185144580554022 8.6918486472481646 7.6763403638193903
3.7635669119517789 10.8643269926635995 7.6983990403273683
5.0183362321400891 13.0376187988984658 7.6960612368555310
11.2914340523225132 2.1730259631875333 7.6918825872500873
10.0368333352867722 4.3458716138581694 7.7197727778184797
8.7822072951857972 6.5188651590893318 7.6954320298804264
7.5275937035853433 8.6918497466809210 7.6919859697373072
6.2728024434135650 10.8646296435128917 7.7212573494011716
2.5092987512827962 8.6917249687720322 0.9854281815643130
3.7029709402289619 8.0025853360384733 0.9668076985504331
