rBN 3-layer slab
1.0
15.0551462173000008 0.0000000000000000 0.0000000000000000
-7.5275736112000002 13.0376828894999992 0.0000000000000000
0.0000000000000000 0.0000169606000000 10.0278787613000002
B N C
107 107 2
Cartesian
1.2519956634383635 2.1687835260764139 0.9903390261609005
0.0020410312250364 4.3512461313833208 1.0178167078958589
-1.2501729292368249 6.5210598812835476 1.0337154161646616
-2.5035955349354801 8.6925922888421283 1.0252937025383464
-3.7642959091056452 10.8649272512568071 0.9995465252096417
-5.0178405833228661 13.0373958118813142 0.9804634735327263
3.7642124598018456 2.1695628264502229 0.9739352066187948
2.5022598781457779 4.3283681983298941 0.9839570513333258
1.2714275544660181 6.5227143132948209 1.0160317085744617
0.0037671045358018 8.7046130736161338 1.0393256116395171
-1.2609987088782204 10.8684574077831950 1.0329545703745386
5.0179843948224780 0.0003762016575458 0.9987764255441027
6.2753332715684138 2.1697657238514951 0.9843103751989897
5.0189270614606496 4.3425537451851381 0.9617383919051388
3.7429556411231406 6.4965291384306179 0.9776486629648513
1.2453918311562688 10.8550954767992902 1.0386623869805531
0.0021276717094570 13.0324671825515441 1.0238655006210435
8.7832027484293249 2.1713593524150747 1.0106311402178965
7.5264786026140129 4.3471137064923733 0.9718487523018681
6.2634462719076769 6.5243686757805595 0.9560194855787814
5.0273128821254893 8.7210189385724668 0.9776684838218154
3.7688748049527154 10.8482588853017763 1.0154298749146295
2.5095078284665422 13.0327726900112140 1.0323688133355644
11.2908356264127363 2.1717349489400131 1.0285858517773450
10.0371105762185699 4.3457182567405956 1.0056699529514947
8.7805764402104653 6.5192081528114096 0.9725784891806553
7.5307600094162304 8.6930255994909178 0.9625152597853356
6.2847125240738801 10.8795388686665220 0.9840673264959653
5.0147933501825008 13.0332767368761928 1.0172042825625518
13.7989716294861733 2.1738853318314328 1.0183139991438246
-2.5083851544865756 4.3469905974488272 1.0292699971963359
-3.7618802648502947 6.5187790261125977 1.0120500453623853
-5.0144385616000431 8.6913722243540992 0.9857869992667193
-6.2698163890137968 10.8660976902566002 0.9747464403334727
0.0023310431931036 0.0043700241501348 0.9903985897897529
0.0000787478786756 1.4485844327361439 4.3116668226235699
-1.2544772722974422 3.6213396279530206 4.3158971095108809
-2.5092676477772637 5.7942224981979917 4.3392477869412023
-3.7642085097750972 7.9673278236667535 4.3587089238869039
-5.0189422361634559 10.1403367367852706 4.3543631213504375
-6.2732339860360700 12.3133316754319839 4.3305763885418349
2.5090924809299340 1.4488659042358032 4.3310301590238156
1.2547173052562861 3.6215270827279529 4.3206310461428981
0.0002554210585253 5.7939299185871418 4.3318174447690785
-1.2545882576667720 7.9670924447051465 4.3542986563168729
-2.5095385225600957 10.1404408800989732 4.3652162477054155
-3.7641584153702574 12.3135794309932365 4.3532701549923836
5.0181744286705436 1.4491532836383596 4.3546890679697787
3.7638146290943406 3.6222233786322109 4.3407691629542491
2.5095683741913000 5.7948025692896472 4.3373190773769084
1.2557998697233739 7.9665247284097109 4.3479913024425567
0.0003397590751007 10.1402231292743554 4.3617360134497876
-1.2547878338676839 12.3136557086851095 4.3650924861734444
7.5274870694546880 1.4490643233951659 4.3584534176215106
6.2728083017715868 3.6222319865836621 4.3570969327768072
5.0182644336650597 5.7953620961369277 4.3497986801030581
3.7641230477469065 7.9672802709834718 4.3378003344459373
2.5106130102236865 10.1398515896329169 4.3474384137936566
1.2549273338599733 12.3135500723335305 4.3535921387553822
10.0369894299155717 1.4488417765208368 4.3385389445869231
8.7820441562391913 3.6218483290505099 4.3523383144075387
7.5271590606157490 5.7947600462889062 4.3581988322818601
6.2721928040600163 7.9671559220481303 4.3493602080429756
5.0183307951262996 10.1399584818779100 4.3363322375643225
3.7644280455621204 12.3134442400122701 4.3306691142598943
12.5462214140855188 1.4486423641089052 4.3153155845200102
11.2913918673874729 3.6215537845264127 4.3316371256799266
10.0364612899219541 5.7944904412449567 4.3524669150003508
8.7815129094906776 7.9672894181628466 4.3567818458987251
7.5270244256861343 10.1400715123185847 4.3398779594129522
6.2730816342251128 12.3132880086870085 4.3196068721073395
1.2544083904747274 0.7244252588126854 7.7223341410699069
-0.0000318597325863 2.8973931619815554 7.7072987809940594
-1.2546655849353618 5.0700912228533088 7.6725051637887622
-2.5094648230934475 7.2429700060135840 7.6530325350651101
-3.7642185051224342 9.4160259802372845 7.6680566924631197
-5.0187735803832556 11.5890487506247553 7.7023710581697795
3.7635934880599531 0.7246636766074038 7.7027391302643498
2.5092191483939010 2.8977183873386529 7.7219033860379254
1.2549022728834136 5.0705166370277244 7.6987469429103355
0.0002545043879594 7.2428111592683564 7.6553447254241656
-1.2547176747273558 9.4159975219219483 7.6363276397102249
-2.5094914794664800 11.5892238181925986 7.6598009343169462
6.2728268725588077 0.7247292615580946 7.6694913715554618
5.0183111499727007 2.8979331443574035 7.7117677733056818
3.7640676894079910 5.0712186033390543 7.7201023541191613
2.5105669649065367 7.2437123395088161 7.6888755665224560
1.2558058640056480 9.4154026168681249 7.6452601416646884
0.0000282081863892 11.5892042294482618 7.6373853103916547
8.7821898968913672 0.7246470665776564 7.6551253580343950
7.5274224294809722 2.8977314106520993 7.6878407046815180
6.2727134608575090 5.0708121851405208 7.7214586221959927
5.0179338626965322 7.2434225771544440 7.7211278584778640
3.7639917092183914 9.4146353646569292 7.6896071861558575
2.5096134857347190 11.5890039059998013 7.6570908395859361
11.2914276638284665 0.7244375644142617 7.6742245944158691
10.0366486867076663 2.8974886425594217 7.6726584749216480
8.7818415991888532 5.0704004015310309 7.6964551189116266
7.5269239569284876 7.2430890497211449 7.7211067541021938
6.2722497832989736 9.4153599745702330 7.7204822870638710
5.0182715262071271 11.5886291082876713 7.7001516289821428
13.8004240214385536 0.7242785992944443 7.7079856619010512
12.5458546160556583 2.8973227541306206 7.6822776235141861
11.2911084188689657 5.0701998632258896 7.6716241019787201
10.0362847596954925 7.2430536331221207 7.6864256684651666
8.7815589872961208 9.4158332428811544 7.7110427830749400
7.5271984636229066 11.5888002610953453 7.7222537847904027
-0.0019666922678083 1.4498049650035632 1.0028751599654275
-1.2536682386988323 3.6251370220453940 1.0295192414559495
-2.5049126028767295 5.7968097124491020 1.0324511026497030
-3.7567901242262449 7.9677956634094702 1.0107206900320571
-5.0154634669582023 10.1404798694968914 0.9855895889883397
-6.2717733589897540 12.3149750350719493 0.9802891839057021
2.5084312773101880 1.4468390677310545 0.9799206413255434
1.2478218510705061 3.6144972389909054 1.0000923678249267
0.0076627220503435 5.8077972959264272 1.0298696190401253
-1.2415584339789862 7.9707138713982264 1.0403190454149631
-2.5085990333147459 10.1403047398069166 1.0257788830368362
-3.7627141621474456 12.3127800011688713 0.9934421577983992
5.0198189312121846 1.4461176569735608 0.9843261795947639
3.7622761969627287 3.6147717528081920 0.9705613484237650
2.4951588542094942 5.7705838411044521 0.9937938312513793
1.2826876915805594 8.0015172759590474 1.0297425109508165
-0.0057828447733247 10.1437879497547687 1.0470981544899989
-1.2541693451314093 12.3129611904957681 1.0248696411807410
7.5308266848802301 1.4424571055816053 1.0090032656477728
6.2748903649777885 3.6165578381025254 0.9687196489078671
5.0132350544072866 5.7859298833608221 0.9604930775034904
2.4937804013615397 10.0991191284200266 1.0292757184860792
1.2583398505661108 12.3004992781377229 1.0389747329793086
10.0369614874872930 1.4438327952490728 1.0310656149098985
8.7828443352465815 3.6202483547937545 0.9966693321021772
7.5242725139206463 5.7964558324334741 0.9619421734165196
6.2778853192642901 7.9762825684608529 0.9608347244959977
5.0321356284963024 10.1645909220863722 0.9936327585767433
3.7561529657566575 12.3001503662886886 1.0288761551675103
12.5433764395182372 1.4461089398915152 1.0290088596044491
11.2922896668005013 3.6210788927126671 1.0287091004995192
10.0382824029599345 5.7946604640806996 0.9975475289557915
8.7874968742469530 7.9683727537215363 0.9699195805975148
7.5327439595064094 10.1451826265582810 0.9712686446766851
6.2757603162967994 12.3228271414710271 0.9999405309659551
1.2546433479555159 0.7242979812668824 4.3227340655244877
0.0000154714024567 2.8971646696359534 4.3129871072546813
-1.2546672361618885 5.0700708636047951 4.3284880079718091
-2.5092007973369626 7.2431573498598558 4.3543805846420671
-3.7638607204174530 9.4161222071144213 4.3649079526225005
-5.0184222075483573 11.5890502199054435 4.3487196186493238
3.7637769352682877 0.7243646497173677 4.3490215880279539
2.5092117527789122 2.8972534730480253 4.3302676831674729
1.2544677674263682 5.0699955607669214 4.3296719761585845
-0.0000141843984713 7.2430073496977254 4.3463383807455669
-1.2545385108217220 9.4160979298296859 4.3660839444429564
-2.5092420029440179 11.5890915809668655 4.3670559880975901
6.2729325496028139 0.7243845041961522 4.3648635992748792
5.0183682707006447 2.8973496268523529 4.3544371781816480
3.7637251353127583 5.0702217028995706 4.3444955512473555
2.5086641523064150 7.2427153108280269 4.3463445506280003
1.2547768627136375 9.4160055577525021 4.3538628451125154
0.0000424571286626 11.5890203371450546 4.3657393017099944
8.7821698352609356 0.7243357463233410 4.3536829542952882
7.5275408445105843 2.8973110478770305 4.3605937548347704
6.2729698414096662 5.0702506647392145 4.3598328988004553
5.0185541172792369 7.2430661233807960 4.3526435180259027
3.7639141184171674 9.4168017157625492 4.3457634655361108
2.5093195968230821 11.5891542503508056 4.3453558876543710
11.2914524553993836 0.7244579719431838 4.3274910691114856
10.0367861806247873 2.8972862283240106 4.3426706301602804
8.7821685686254067 5.0702128581702919 4.3586624039271333
7.5275381181183674 7.2431512442178567 4.3595432327303127
6.2729414329231821 9.4161659983175436 4.3435787180167287
5.0185111864278129 11.5892885877975171 4.3284099075885560
13.8006518068852362 0.7243674049447071 4.3123386075435510
12.5459837111891304 2.8972533822618995 4.3190209181410397
11.2913525972709152 5.0701865652495375 4.3430199642926546
10.0367110376739710 7.2431688069595550 4.3606451424638086
8.7820914445854275 9.4160856396216861 4.3538518053240374
7.5275964079308606 11.5890526393930529 4.3293248111065914
7.5273873249732945 13.0377560849770546 7.7256121030561591
-1.2546818670800739 2.1730051750384676 7.7031060892155985
12.5459004512482295 4.3458799639227417 7.6750365390477304
11.2912802222953861 6.5188157561638223 7.6699601311928598
10.0366637609000158 8.6918159824444388 7.6919392938250555
8.7819884528733141 10.8648246230926286 7.7190881508372877
2.5090115632792225 0.0001174405512669 7.7160886555643016
1.2544464164795666 2.1730853296340551 7.7252181588282438
-0.0000605301166872 4.3460218207674730 7.6956108571974555
-1.2546687265446657 6.5187917875983903 7.6570283599562190
-2.5092670211908921 8.6917744148686555 7.6486004912204448
-3.7639210868962714 10.8648005874781788 7.6776327565736926
5.0182681112899230 0.0001023847452163 7.6783770165010230
3.7636308192471799 2.1730840176097970 7.7194224263351421
2.5090767709256636 4.3460905007285229 7.7214707818823154
1.2546596471066371 6.5191725073204561 7.6839298327189995
-0.0000751209881609 8.6917547038985052 7.6417177503390974
-1.2546585057230828 10.8647823516832034 7.6392577445276721
7.5275558917786967 0.0000858317979973 7.6504538472768298
6.2729128774480873 2.1730367949853200 7.6934153084008043
5.0183189957704712 4.3459356830861502 7.7263412261111926
3.7638854134032251 6.5186801169982207 7.7117520894549987
2.5089283912503255 8.6919535890449211 7.6697499217348053
1.2545957273483475 10.8648301905757059 7.6428407380883678
10.0367761252782568 0.0001058006735758 7.6592418524231833
8.7821606096239861 2.1730434644232401 7.6717753627994494
7.5275246519262478 4.3459656887527229 7.7081439007626438
6.2728473566047267 6.5189305641726687 7.7313994571538149
5.0185837881336575 8.6918155151154313 7.7122109621486032
3.7635368055208853 10.8645303305390719 7.6854662272716832
5.0182476932533389 13.0376843816595009 7.6971021025410149
11.2913523825380651 2.1730152895873101 7.6761298532037188
10.0367459069672496 4.3459147253306485 7.6816146610601264
8.7820908448056212 6.5188631685158507 7.7074166859394522
7.5275192643320556 8.6918435828799865 7.7260278885562634
6.2727598729352847 10.8647547791003003 7.7222875721268149
2.5094132983550792 8.6916870926094649 1.0168088334018162
3.7029689820945983 8.0026156674228446 0.9925978639829215
