rBN 3-layer slab
1.0
15.0551462173000008 0.0000000000000000 0.0000000000000000
-7.5275736112000002 13.0376828894999992 0.0000000000000000
0.0000000000000000 0.0000169606000000 10.0278787613000002
B N C
107 107 2
Cartesian
1.2520202353372452 2.1688145347935794 1.0125698416798563
0.0020581506641076 4.3513129912512820 1.0068780654846581
-1.2501221245128500 6.5211863117851676 0.9980747964747400
-2.5036701625198945 8.6926421744421987 0.9934608579536782
-3.7644248956731730 10.8649076093030565 0.9985563098891403
-5.0178719413444002 13.0373907371270263 1.0086451956952664
3.7642773997135892 2.1696714355744806 1.0066479026808246
2.5023536192768394 4.3284323483292972 1.0065079961008505
1.2714950491631556 6.5227506648904638 1.0003960689601246
0.0036578933166927 8.7047745186860030 0.9919937486092858
-1.2612430032983082 10.8685763240835040 0.9902347344138722
5.0179179242252934 0.0004694725082793 0.9982849453289681
6.2753833992923473 2.1698572194736121 0.9996574061943106
5.0190633350908334 4.3426490183375419 1.0033212996233827
3.7430428697464722 6.4965970759944289 1.0020466989771293
1.2451735734457519 10.8550861338455622 0.9920315642140342
0.0020216351262656 13.0324808158561716 0.9932410176786105
8.7831984511093442 2.1713016330234591 0.9986835382452035
7.5266107598459344 4.3470588800374781 1.0010487835087694
6.2636124942469165 6.5242477196694271 1.0021947345185245
5.0272703420213229 8.7208737428202827 1.0023537809586738
3.7688498156124370 10.8481526287327377 1.0007531508209819
2.5093980200451345 13.0326427154395272 0.9981615203399404
11.2907631718995347 2.1716922781673182 1.0040045805061617
10.0371370901869810 4.3456795943908029 1.0012749482909822
8.7806780604203460 6.5190921734846698 1.0013032327811175
7.5307222703819772 8.6928226830733148 1.0038820388205119
6.2846788424071338 10.8793894974495231 1.0071447570996146
5.0147176942170031 13.0331962873702007 1.0072364751162728
13.7989248246937315 2.1738885400145436 1.0108571139062839
-2.5084001089105765 4.3470408720275255 1.0039587673550641
-3.7618444579065931 6.5187745194307567 0.9988908929300483
-5.0145044910269441 8.6912523664190573 1.0001792108375824
-6.2698967710118874 10.8659531338870163 1.0072364758815735
0.0022911338690281 0.0042980511176982 1.0129000669449213
0.0000104747437513 1.4486276409779550 4.3214355919870329
-1.2545242676847441 3.6214101807879189 4.3279590839343429
-2.5092292329373009 5.7942775037861125 4.3437699180098379
-3.7640872328248389 7.9673453777946728 4.3528542471813418
-5.0188410743789067 10.1403433023943048 4.3461043091159270
-6.2732332349421380 12.3133468590285773 4.3303880552245824
2.5090794600767414 1.4488629763330882 4.3309164561004589
1.2546434934612019 3.6216109335456363 4.3284079239389133
0.0002006061581861 5.7940468063010284 4.3365488864837287
-1.2545581204819674 7.9671422917278321 4.3474863714305814
-2.5094290369397960 10.1404238901046266 4.3499814895308431
-3.7640766588069532 12.3135333741933852 4.3416628978312737
5.0182171791641634 1.4490672411486423 4.3472083536214816
3.7637719980713231 3.6222317478204547 4.3424433373184739
2.5094636773414916 5.7949149019236232 4.3418779408523553
1.2557124562811195 7.9666258039816755 4.3458972533846580
0.0003385313097697 10.1402211379766261 4.3496839471689190
-1.2547205482225097 12.3135688814674111 4.3505655330651072
7.5275319572464259 1.4489563002152852 4.3540206040323621
6.2728338939147807 3.6221640585286701 4.3569257602804656
5.0182133338556447 5.7953840758685686 4.3530877732327253
3.7639972303158156 7.9673501505100965 4.3409862175776208
2.5104793514094190 10.1398720582938200 4.3459541666064085
1.2548984545397333 12.3134990657503689 4.3481304789319308
10.0369647827592949 1.4487886176150870 4.3444130902487963
8.7820930577327054 3.6217843855737426 4.3568954659024719
7.5271997891804094 5.7947410299559010 4.3611982526864921
6.2721513383923311 7.9671890049568077 4.3525586949049222
5.0181839473784562 10.1399896229021209 4.3413983192637433
3.7643020903418876 12.3134341864483545 4.3366539572493084
12.5461425943424487 1.4486560242128521 4.3280121391778517
11.2914026749703975 3.6215548606594785 4.3422798240167575
10.0365478732448423 5.7944887138638803 4.3563134881010015
8.7815915301828973 7.9673043451742869 4.3558223216256140
7.5270023701533892 10.1401042958865197 4.3413863043580978
6.2729769331639629 12.3133112736848087 4.3279251819257434
1.2544674654576049 0.7243928475837230 7.6930055968376791
0.0001409379613665 2.8972656867008335 7.6952944613301142
-1.2545102130328256 5.0699192626225358 7.6928364827451796
-2.5094242151497257 7.2428621224656480 7.6880478686420597
-3.7642804943193853 9.4160262557142023 7.6858575412975370
-5.0188246076238823 11.5890799994380789 7.6882343166645182
3.7635447201784267 0.7246896824138697 7.6879881737614237
2.5092755103523268 2.8976646750846902 7.6893263582952764
1.2550769256213634 5.0703558395302339 7.6928364544807168
0.0003757206182120 7.2426313317908440 7.6933996643126905
-1.2547074230045241 9.4159424388926549 7.6920960830514522
-2.5095466262381931 11.5892610282418609 7.6892379386453547
6.2728051504440492 0.7247897861386495 7.6852706779048496
5.0182827803699102 2.8979532312335947 7.6804786883606582
3.7641105459316595 5.0711757228662071 7.6814235548139118
2.5106605015245878 7.2436700278456225 7.6886489023096347
1.2558917037399209 9.4153635307598531 7.6906599214067626
0.0000916565061747 11.5892381316164599 7.6917532298112707
8.7823164797827076 0.7246745117914709 7.6873747323058526
7.5274370750405941 2.8977665189615678 7.6777118189695370
6.2727173486048455 5.0708168316632909 7.6736259359062080
5.0180021306438150 7.2433835911733997 7.6791131605541167
3.7640837923545560 9.4145876618317690 7.6885387460151868
2.5098422841816306 11.5889995399531429 7.6929617033987956
11.2916614967062507 0.7243955122483516 7.6924121701873061
10.0367728929439863 2.8974632165940104 7.6837835933932865
8.7818524041545754 5.0704007452415647 7.6742032955537010
7.5269229737650329 7.2430908004418644 7.6738630159803849
6.2723080865457943 9.4153496656678310 7.6815553136761858
5.0185052631765190 11.5885690281901397 7.6926436538987550
13.8006238755821808 0.7241991032691404 7.6952036217712072
12.5460530947514961 2.8972121134599873 7.6925840080481596
11.2911958408457380 5.0701138097096718 7.6841140314262706
10.0362640315416769 7.2430344368284674 7.6782882337049632
8.7815244723639747 9.4158537644510840 7.6809618396871313
7.5272707124743725 11.5887842724311305 7.6894739508255467
-0.0018973503697486 1.4497390648627499 1.0170464677488309
-1.2536092872739149 3.6251186635201491 1.0107141610042487
-2.5048823343202398 5.7968479807048281 1.0024890793594603
-3.7569596205433551 7.9677833289383067 0.9993314844643877
-5.0156880503644388 10.1403994992526805 1.0047005347073041
-6.2718390037847183 12.3148707974903200 1.0140387050614834
2.5084717693940290 1.4469107540940562 1.0136531956711496
1.2479650841569110 3.6144939395534306 1.0123707680825231
0.0077870398254668 5.8078013676904430 1.0041788345240852
-1.2416203427423314 7.9707864037258389 0.9955216685280199
-2.5088784199194367 10.1403727480799297 0.9947737661536701
-3.7628854038926551 12.3128600690687406 1.0043344952936748
5.0197600821078572 1.4463255125849364 1.0041399926323638
3.7624343835697824 3.6148871768896367 1.0087849670942293
2.4953354739643698 5.7705564616152820 1.0052703180546700
1.2828137709241276 8.0015749709723920 0.9988796705482265
-0.0060290015490409 10.1439133121662319 0.9913859116102635
-1.2543863408149367 12.3131396107261093 0.9945734473117958
7.5307288719280434 1.4425821516417887 0.9989638331874670
6.2749229935675590 3.6167374590769970 1.0039940444318554
5.0134174610970472 5.7859449270120962 1.0046473068275561
2.4937695034984282 10.0989565716312111 0.9990334030918658
1.2582228974367322 12.3004981290836053 0.9954892848527023
10.0369173373431746 1.4437599044059957 1.0024663318393741
8.7828232436072682 3.6202610757753408 1.0027739201947901
7.5243888086513726 5.7963734094574635 1.0042632535412899
6.2779341444163865 7.9760792778297995 1.0049843495757340
5.0322182182365349 10.1644198092169074 1.0058094122610626
3.7561827205307363 12.3000144066679322 1.0044983483897292
12.5433956979670391 1.4460300897122835 1.0108756667935652
11.2922658705460748 3.6210676304040437 1.0059699757179563
10.0382427608237315 5.7946338139136682 1.0029564191801825
8.7873402087412131 7.9682253257738127 1.0045324134575850
7.5326998064478694 10.1449552920651929 1.0095006842837868
6.2758053520216119 12.3226691515804951 1.0129103823850172
1.2545650826153230 0.7243454247266435 4.3265752829297179
-0.0000908853482768 2.8972412257358755 4.3244805742367545
-1.2546876653911405 5.0701254227075632 4.3366012087005021
-2.5091071059059638 7.2431573337164536 4.3508874889112850
-3.7637170348562710 9.4161093270419798 4.3529793312932288
-5.0183725943821651 11.5890562255493510 4.3407713907753278
3.7637969073104807 0.7243229869531115 4.3414243266151296
2.5091127638580555 2.8972957333158020 4.3341089303533513
1.2543462377652586 5.0700949757350715 4.3362759013435541
-0.0000624069705571 7.2430732654305876 4.3444402363341714
-1.2544712309223158 9.4160864036854726 4.3518573149742927
-2.5091315931048004 11.5890278720905080 4.3501106565532588
6.2730149459847357 0.7242696832783486 4.3541130129327605
5.0183633653337871 2.8972925424399985 4.3522592860485778
3.7636076638842590 5.0702746810547392 4.3485723528089597
2.5085190573161111 7.2428121389552151 4.3490426744309074
1.2547018700241452 9.4160478982739946 4.3472630871648894
0.0000854301725076 11.5889675164592276 4.3523440183591706
8.7822182795137333 0.7242589126441884 4.3518571319234569
7.5276234041870511 2.8972020154433720 4.3606825821784536
6.2729767927326421 5.0702175897622128 4.3625868946157889
5.0184452756752114 7.2431295181772368 4.3568219388313132
3.7637571733969026 9.4168747248924021 4.3488668418292722
2.5092389384008253 11.5891625771213533 4.3447462407912365
11.2913987414763088 0.7244524391865458 4.3369028552989750
10.0368575732869001 2.8972234563781503 4.3508829363211934
8.7822799866451007 5.0701539630608634 4.3633773741876967
7.5275749228105440 7.2431661147432314 4.3619350451302710
6.2728405240719809 9.4162413333448267 4.3477318907834155
5.0183666613124958 11.5893426961458630 4.3359095412961270
13.8005357443498156 0.7244243848629779 4.3242978595137131
12.5459583824405936 2.8972729347154003 4.3326431379949701
11.2914475757904480 5.0701638903539026 4.3504002083283773
10.0368522332463961 7.2431569277021577 4.3595492376478751
8.7821438788701744 9.4161205339616814 4.3509541399236351
7.5275149643150074 11.5891186183457329 4.3332682188220719
7.5274980803071401 13.0377091113622665 7.6965687811681036
-1.2545487364093921 2.1729362621067434 7.6987008048136136
12.5460249758970726 4.3458164996486159 7.6932734636809164
11.2913813004717536 6.5187834388971968 7.6855864877381839
10.0367381227420047 8.6918151316419312 7.6833079555379848
8.7820695100863215 10.8648099120127188 7.6887079306690760
2.5090874408459718 0.0000733416832904 7.6931273636692854
1.2545465920186378 2.1730201986982611 7.6965403614362202
0.0000602642060879 4.3459535114614338 7.6976548683852428
-1.2545802254473846 6.5187370327835517 7.6951101846826280
-2.5091934066367036 8.6917427156449349 7.6920490584906096
-3.7638494514913137 10.8647802376484943 7.6906794231296738
5.0183253893050770 0.0000530781240430 7.6903431548441121
3.7636858010827350 2.1730178504981983 7.6883526139333460
2.5091465897221061 4.3460426876430862 7.6909213886192749
1.2547669327054802 6.5191100111251732 7.6972682092359364
-0.0000232314450974 8.6917106915342632 7.6979216135182886
-1.2545959819488071 10.8647515629049085 7.6948804890355884
7.5276280298095832 0.0000485601904801 7.6914091769108426
6.2729564287519164 2.1729807790947788 7.6826458764001941
5.0183455960039538 4.3459087704895483 7.6791936997196126
3.7638121025143638 6.5187444485536457 7.6809070395075398
2.5087099534177364 8.6920824103140450 7.6870369648215844
1.2546671653777508 10.8648189869213070 7.6976099278682089
10.0368798225676255 0.0000635638734711 7.6945047451482811
8.7822474735205489 2.1729836806477296 7.6849649054232119
7.5275813847767763 4.3459234169777572 7.6751321503590360
6.2728864723376381 6.5189118387168872 7.6756685813480132
5.0184933890371308 8.6918402976766949 7.6809084374982470
3.7636573576538077 10.8644790322128237 7.6969770988265722
5.0183769866473869 13.0376235591445795 7.6973819454527970
11.2914784712328835 2.1729517956595470 7.6929773823444876
10.0368458577693040 4.3458667756379672 7.6821181308834019
8.7821639247909076 6.5188490527365568 7.6754577985078516
7.5275582375859127 8.6918390168140931 7.6795359690848910
6.2728430095884384 10.8647222849700658 7.6909636617034458
2.5093213133710246 8.6917179206647752 1.0001932610504196
3.7030265128630098 8.0025584246628814 1.0042457890142036
