rBN 3-layer slab
1.0
15.0551462173000008 0.0000000000000000 0.0000000000000000
-7.5275736112000002 13.0376828894999992 0.0000000000000000
0.0000000000000000 0.0000169606000000 10.0278787613000002
B N C
107 107 2
Cartesian
1.2522300434086890 2.1689487704395063 0.9897228564946853
0.0021646412866863 4.3515177948353498 1.0112978974349613
-1.2501183636177937 6.5213875842405349 1.0306234596851214
-2.5035338638460307 8.6928543392288660 1.0305958530369235
-3.7641150814430846 10.8650844017801429 1.0105314001154841
-5.0175682029287305 13.0375158022427087 0.9888815908796321
3.7644895742164688 2.1697159108723127 0.9777601583006041
2.5024876934860800 4.3285396006484866 0.9793044034830598
1.2715957562083595 6.5229109031636421 1.0081628456646925
0.0037634457246904 8.7049373701525123 1.0357487949124120
-1.2609645186388558 10.8687071985306734 1.0368901897777261
5.0181737156642683 0.0005503271926361 1.0069313836730158
6.2755208217506544 2.1699559479247377 0.9888516803902788
5.0191858596462327 4.3427273837987777 0.9614945510896122
3.7431443942575360 6.4967375861781358 0.9706609328734244
1.2453448928871913 10.8553388576208221 1.0345672228844458
0.0021689856450502 13.0326881325754549 1.0259235365952009
8.7832528787550839 2.1715795441642971 1.0116655516612783
7.5266634515509754 4.3472907797007823 0.9752252100633995
6.2636803565999388 6.5244981261814337 0.9560513469848381
5.0274539577268165 8.7211473483038731 0.9728893178191029
3.7690236927104515 10.8484227024910975 1.0093469587806423
2.5094945972655514 13.0329815388934289 1.0282947605997466
11.2908401424661999 2.1719918999275665 1.0245492482083636
10.0371769874456476 4.3459681724125270 1.0075269758528635
8.7807554190636434 6.5193694401652795 0.9786738935411889
7.5309680465419655 8.6931112065441329 0.9671975536760310
6.2849209750895030 10.8796642588274732 0.9839822472865218
5.0148708624637326 13.0334649300805019 1.0124318767989582
13.7990698946500991 2.1741257515776486 1.0132921719581507
-2.5083510216490548 4.3473000636109482 1.0257197659219996
-3.7618001760158313 6.5190501639311300 1.0162719452624742
-5.0142802311858068 8.6915203418345417 0.9958318229826808
-6.2695719987319629 10.8661884525959493 0.9836576591698323
0.0025533603605837 0.0045109026789323 0.9920824629001430
-0.0000892121878648 1.4486357354734942 4.3400717489142835
-1.2547469181748245 3.6215139647040786 4.3590167181416408
-2.5095102043679853 5.7944123237151537 4.3672950651733720
-3.7643167272621354 7.9674138051777472 4.3567317791096727
-5.0189541391431538 10.1403011805055367 4.3376970034566567
-6.2732769422926147 12.3132783307329632 4.3292088246652849
2.5090653290207707 1.4488563007030810 4.3264085909661016
1.2545758889233669 3.6216570391339324 4.3349165770467559
0.0000115770313501 5.7941488564848775 4.3601053230217346
-1.2548215318744429 7.9672597308038196 4.3773357154255743
-2.5096509662517867 10.1404764039905437 4.3688261630505183
-3.7641637633650706 12.3135239299400663 4.3432447018491986
5.0181356171113158 1.4491010851580446 4.3321020342918777
3.7637607573503522 3.6222523264722333 4.3127611719068231
2.5094065538801607 5.7949320627633254 4.3273667035018155
1.2555177330077294 7.9666762465147292 4.3620313633173708
0.0000620923703791 10.1403071186153735 4.3810560037871396
-1.2549402889163490 12.3136375755941909 4.3659986869500989
7.5272955645423361 1.4490344938152044 4.3511156887857689
6.2727419388751500 3.6221961699911192 4.3154266244134920
5.0181896136293629 5.7953686680659500 4.3019832690754285
3.7638526908352454 7.9673672414553929 4.3176174355951229
2.5102742333438077 10.1399070490840995 4.3619797103873825
1.2545996856602897 12.3135699691785163 4.3744721976348533
10.0366525777549196 1.4488841065447509 4.3644732858070618
8.7818503530571679 3.6218717065384447 4.3393590676365630
7.5270895877294990 5.7947470259140959 4.3100127355586295
6.2720995222841678 7.9671184437985145 4.3047461939309803
5.0180854293900214 10.1399288706929553 4.3300970601806865
3.7640647567382595 12.3134567232877643 4.3600467467022748
12.5458979552723289 1.4487257407260212 4.3590072421757933
11.2910926015757944 3.6216847400022281 4.3610917203154784
10.0363093247305972 5.7945720276871144 4.3421456151481710
8.7814736459615368 7.9672735509860626 4.3209787132437034
7.5269357771289505 10.1400092607683110 4.3183202110707457
6.2728572544688177 12.3132620202912122 4.3376949454488818
1.2545644355257697 0.7242905498177156 7.6725333785280814
0.0001115774732923 2.8972925636826199 7.6886238189881801
-1.2546255029503661 5.0700434167831796 7.7096587109803485
-2.5094993034454989 7.2429660754614797 7.7146515266810907
-3.7642436029726141 9.4159906723333684 7.6990174325846503
-5.0186953517028217 11.5889423958616096 7.6778419909997089
3.7636745530862274 0.7245645925016303 7.6743463032076464
2.5093689125867908 2.8976196196025197 7.6640211019737450
1.2550601851987728 5.0704271661230020 7.6846726025789760
0.0002773838511367 7.2427342998509268 7.7138675680291362
-1.2547817218079396 9.4159724740300614 7.7247441276033033
-2.5095023400878658 11.5891733943360187 7.7048563947163418
6.2727928662146493 0.7246939928399539 7.6931660234366710
5.0183551289760775 2.8978656526358799 7.6577692388053764
3.7641406476391195 5.0711565796244304 7.6513859006911193
2.5105414336993221 7.2437370061890878 7.6804733221879689
1.2557192021892596 9.4153942003955500 7.7123792445482984
-0.0000329868718476 11.5891940577817660 7.7224136477428580
8.7821350137347469 0.7246105412729236 7.7100415022397923
7.5273732444614732 2.8977042050243420 7.6756978737583692
6.2727309390066104 5.0707543433798881 7.6451651112194039
5.0179699461104317 7.2433321066729679 7.6488914304256257
3.7639100713963924 9.4145513764151723 7.6815680799675334
2.5096477892283340 11.5889406183185635 7.7127456515438704
11.2914535814841361 0.7243641673138576 7.7085878770929712
10.0365928441811114 2.8974676390919880 7.7006339742485181
8.7817885140352079 5.0703873810577056 7.6700205334239717
7.5269365462929549 7.2430162867054166 7.6485930180807422
6.2722916079652222 9.4152335566157923 7.6558971064781458
5.0183898873880395 11.5884630290941946 7.6870342267195442
13.8005505677894345 0.7241463984536756 7.6898371053242238
12.5458890020326006 2.8972676565632334 7.7072856317214100
11.2910677715581649 5.0701975859591055 7.7029114072589069
10.0362511203234650 7.2430352025797422 7.6814943319826394
8.7815969591878957 9.4157406970430717 7.6647015029926049
7.5273176246654883 11.5886443891657454 7.6686657468945967
-0.0017108179688410 1.4499445813359744 1.0009042553542560
-1.2535191909468038 3.6253624484783331 1.0232971369486052
-2.5048838162631921 5.7970887247394476 1.0318419648926804
-3.7568272272941403 7.9680317433030075 1.0188115446936084
-5.0153903262960959 10.1406275774801298 0.9976093245332659
-6.2715447606494443 12.3150828099189180 0.9877749135666302
2.5086926556510942 1.4470047101711128 0.9843172541466155
1.2480928708429555 3.6146468335774919 0.9949897791011996
0.0078527295110066 5.8080203730192901 1.0229437285923892
-1.2415268552258094 7.9709802154557075 1.0402698567720132
-2.5086065642957291 10.1405607854385451 1.0341509587910038
-3.7625965183379462 12.3129903316344222 1.0044647809088127
5.0199673191617169 1.4463888351239877 0.9908581105021678
3.7625569619502470 3.6149462187474155 0.9694543505017688
2.4954392184195080 5.7706842456920873 0.9857725052116633
1.2829647484292510 8.0017380357520942 1.0226566977111715
-0.0057461946143175 10.1440420488999568 1.0459054810520487
-1.2541546668037298 12.3132556399320841 1.0307461636269701
7.5308497072181506 1.4427781640801034 1.0123635126973716
6.2750419746181070 3.6168251759134669 0.9715702764425120
5.0135060754499579 5.7860814870106871 0.9569890943816324
2.4939593468833094 10.0991762255587361 1.0226853613337576
1.2583670403042377 12.3007506815914986 1.0370957741822799
10.0369818571404892 1.4440936912842615 1.0286351495953272
8.7828641654090234 3.6205396981292046 0.9994852519599334
7.5244051791983004 5.7966479480090376 0.9653419941766954
6.2781120362794640 7.9763660843871502 0.9601290586008875
5.0324211534924501 10.1647033006192817 0.9892120839119509
3.7562965953483420 12.3002951696744915 1.0230305552190313
12.5435089482378839 1.4463031157656991 1.0233327662934966
11.2923061944490470 3.6213583610810849 1.0265491878718616
10.0382825558041926 5.7949161064655046 1.0027534748082867
8.7875627173024036 7.9685097072919078 0.9781153126037917
7.5329673646492088 10.1452514584807858 0.9760539791044228
6.2760093236006256 12.3229357613483472 0.9983586872254677
1.2544906548477528 0.7243354000502696 4.3322529157393710
-0.0002169007662763 2.8972746417211233 4.3479216527194282
-1.2548931720761280 5.0702095510301541 4.3684872313579524
-2.5093400782755952 7.2432504739177652 4.3736169821602289
-3.7639157349183203 9.4161494850852225 4.3582890260310663
-5.0184853210567217 11.5890474884820627 4.3374593441706919
3.7636928895823405 0.7243406764550622 4.3340578595382322
2.5090461031782496 2.8973050080484684 4.3233946700417656
1.2542353272476254 5.0701293080904639 4.3429522766812036
-0.0002717647423129 7.2431415313996377 4.3725077855359737
-1.2547121755718540 9.4161616874546432 4.3836148419724559
-2.5093262709545194 11.5890750987241482 4.3640297668377270
6.2728189738587501 0.7243311530414538 4.3526637637730659
5.0182630304312470 2.8973170797446492 4.3175610397171038
3.7635375190419746 5.0702804529025896 4.3105750841997637
2.5084170910274239 7.2428277840786652 4.3400729397397120
1.2544690054024277 9.4161098019780223 4.3729642802068076
-0.0001641217179706 11.5890352901659757 4.3813496070741431
8.7819610453988695 0.7243235300572693 4.3691447141231601
7.5274340196056810 2.8972566059288436 4.3355737503072191
6.2728867788930600 5.0702169276031936 4.3050619409148139
5.0184135677844770 7.2430806840436484 4.3085618373227321
3.7636325624215550 9.4168491632463649 4.3411805602189171
2.5090159452649625 11.5892097731217714 4.3714020587312037
11.2911734668026078 0.7245071296538229 4.3674254876068348
10.0366053475776766 2.8973063066655445 4.3596345485524406
8.7820953186195858 5.0702057455633556 4.3300090164565441
7.5274799374073549 7.2431517920797095 4.3084034729881493
6.2727515312603712 9.4162011873012457 4.3150813568864343
5.0182290681115944 11.5893281533245496 4.3452440347679211
13.8003994697575649 0.7244387474474574 4.3490951134231643
12.5457366365202549 2.8973525045360318 4.3659103658782801
11.2912064907470970 5.0702597417822366 4.3618451607540090
10.0366655789184804 7.2432033659720130 4.3411489090450495
8.7820282296907699 9.4161010990190022 4.3243031429661194
7.5274290993640820 11.5890838460462522 4.3279578582722458
7.5275245368455614 13.0376006770501558 7.6783545325776830
-1.2546483195191751 2.1729515992965869 7.7007252053406328
12.5458643094369915 4.3459127483274163 7.7141262456520510
11.2912856522789760 6.5188437727668740 7.7047981050785204
10.0367527112868373 8.6917493704324063 7.6828058769075698
8.7821528682610115 10.8646570979398653 7.6696497711085918
2.5092164888313579 -0.0000533405627196 7.6751841047229696
1.2546121919525766 2.1729833817192361 7.6759291019791593
0.0000103664764158 4.3460269328515677 7.6991607704411624
-1.2546955017544372 6.5188483495378220 7.7211920592800913
-2.5092535554793924 8.6917759384646605 7.7210533260511145
-3.7637850529831072 10.8646859949076156 7.6978154321486150
5.0183856991586193 -0.0000386688729451 7.6940349795817928
3.7638059717975039 2.1729400341943981 7.6635630324501003
2.5092089191497502 4.3460483085335717 7.6655920378897102
1.2547462959878528 6.5191516778883010 7.6991043481058679
-0.0001279717244151 8.6917608373525415 7.7283501064518667
-1.2546576821099702 10.8647259063419952 7.7266468689383361
7.5275115664304986 0.0000039368472154 7.7159469843577266
6.2729627236638805 2.1729228605146944 7.6753046794021085
5.0184060954248393 4.3458650206975404 7.6463702412640622
3.7637662119664852 6.5187590951451275 7.6543439722119011
2.5084961016958394 8.6921416757547671 7.6890271556183025
1.2545121574999505 10.8647942330545408 7.7270048854770108
10.0366755782907546 0.0000277570354988 7.7185706974441439
8.7820948372043528 2.1729636205046439 7.6997837705953707
7.5275413490224254 4.3458926663072690 7.6605148536175802
6.2728922763893564 6.5188432797969469 7.6414565984789604
5.0184077849866062 8.6917709707675268 7.6564982194436011
3.7635548986298475 10.8643838135114823 7.7001617259313662
5.0182457705875736 13.0375575950676037 7.7002951923910414
11.2912736505844045 2.1729781070206999 7.7128394585730167
10.0367004024267015 4.3459024088690503 7.6946261341379794
8.7821282390079602 6.5188142448029867 7.6642328498933088
7.5275805462740042 8.6917147565397830 7.6523559122508882
6.2728251970609543 10.8645779805296598 7.6703459930995690
2.5094698051717805 8.6919176042147193 1.0094200283264962
3.7032222595728461 8.0027314560040512 0.9845213655170325
