rBN 3-layer slab
1.0
15.0551462173000008 0.0000000000000000 0.0000000000000000
-7.5275736112000002 13.0376828894999992 0.0000000000000000
0.0000000000000000 0.0000169606000000 10.0278787613000002
B N C
107 107 2
Cartesian
1.2520832745480450 2.1690014751978022 1.0323536788553331
0.0019736938099416 4.3514577642156045 0.9726686852263683
-1.2501653100353429 6.5211469557158788 0.9684244187264477
-2.5036934237603967 8.6924758335225398 1.0220767891239548
-3.7645163623043874 10.8646983397778296 1.0019890352496925
-5.0179031789487381 13.0373683591069636 1.0054184061046449
3.7643707333000833 2.1696071828528454 1.0533432613257661
2.5024263157620896 4.3283900802659145 1.0275766116760456
1.2713983952749079 6.5226552940794704 0.9596937501000613
0.0036941281420818 8.7047140546508075 0.9821074706195067
-1.2612347134544586 10.8684782128776583 0.9999054739658286
5.0177849548682323 0.0002418626498659 1.0011899720799855
6.2754381198785865 2.1695869866542536 0.9710567937110064
5.0193369335438289 4.3425329200006217 1.0153762418729551
3.7430146566239020 6.4963756066601537 0.9994967732070271
1.2452122840602822 10.8550597836784348 1.0226265666514374
0.0019507971444318 13.0323191180283260 0.9777416143554249
8.7831613253017959 2.1710263945580004 0.9601484336421257
7.5266925467743686 4.3469439142839690 0.9725945962237936
6.2636383785256387 6.5243353715102801 1.0008300530794771
5.0271327589379986 8.7208218307345096 1.0069154587270832
3.7688949072842899 10.8480621174587775 1.0465544861362213
2.5095013121421346 13.0325459074456784 1.0338984246944067
11.2908240032651790 2.1714456378949132 1.0112357849890667
10.0370303011352089 4.3453650679021312 1.0048648141885641
8.7805862961871899 6.5191200503647337 1.0322909984697961
7.5305112635843567 8.6931218004795632 0.9843570687300432
6.2846550880445795 10.8795644685792769 0.9736784916869731
5.0149705714289681 13.0332299867602561 1.0274261039821246
13.7990327176195358 2.1740454073538138 0.9996799751794757
-2.5085376836627344 4.3469047129874294 0.9917459052461883
-3.7619470998511653 6.5185744067828830 1.0446059310753550
-5.0147098511012640 8.6912123152467107 1.0294973068502902
-6.2699722808595020 10.8661118535679222 0.9512530434891004
0.0024361127737946 0.0045270120209907 0.9728506412709230
-0.0001046848909443 1.4484431596422624 4.3449273429129951
-1.2544353771388872 3.6213656219672044 4.3535491734797063
-2.5091535834025223 5.7943253065823539 4.3290510541306180
-3.7642252565865117 7.9673642223413843 4.3035188809649032
-5.0189266414824152 10.1404295331421945 4.3569914902264930
-6.2732917758310718 12.3133416506503135 4.3737955483520130
2.5090905745601377 1.4488643531820942 4.3098436668991162
1.2547170524611562 3.6215287542049959 4.3351654979467895
0.0003513204924593 5.7939991855069577 4.3865304985081108
-1.2546556010773950 7.9670251409439246 4.3566793676662137
-2.5095811848120873 10.1404709593576943 4.3376167668744881
-3.7640159062553877 12.3137292155964122 4.3421856809921602
5.0182881418933958 1.4491373946075263 4.3301140869726602
3.7637058574498439 3.6223103873527629 4.3036242311077579
2.5095861585461625 5.7950695566696595 4.3585971087270581
1.2558090870620888 7.9665777887259139 4.3764150364862671
0.0002056060968843 10.1400540408209725 4.3452876315235756
-1.2546808816082011 12.3135458913796096 4.3543095748538994
7.5275378372320665 1.4489735518926514 4.3857288400496426
6.2726956828952911 3.6221648065420795 4.3544410340830284
5.0181424296513519 5.7954511274660332 4.3359932816295927
3.7640481159065611 7.9674041551040871 4.3349303334596279
2.5104129108027764 10.1399402932738489 4.3093106685015190
1.2548002934304270 12.3134560562200619 4.3339593806944308
10.0368970068295944 1.4489959082039769 4.3584275549514118
8.7820379065203777 3.6218957749407141 4.3746680061787089
7.5271038551207985 5.7946094679068629 4.3444421253236181
6.2722534174766142 7.9671100187749557 4.3530557648697856
5.0182596705826406 10.1401229077500776 4.3291251374665887
3.7641774474329819 12.3135796578008865 4.3029086661443525
12.5460161370619208 1.4487546980444206 4.3378403480207695
11.2914689164861528 3.6218043109764961 4.3422028730561637
10.0365424606938749 5.7945289034662020 4.3090340075653408
8.7815757747108343 7.9671607257380712 4.3348147344577503
7.5270493425048413 10.1400273112094439 4.3845204271089804
6.2728452952054710 12.3132922170296748 4.3549783552433396
1.2545228241103228 0.7244672563822380 7.6864040807215686
0.0001267084116183 2.8972789054065928 7.6864718660717388
-1.2545559959044343 5.0699920182112450 7.6927723404419597
-2.5094690875412753 7.2429428624161405 7.6890773980647511
-3.7642627510171636 9.4160470256312809 7.6813021670738264
-5.0187334871802314 11.5891530046220712 7.6849745493987802
3.7636341440226189 0.7247590497229419 7.6885605133818835
2.5093204928549260 2.8977205292569921 7.6821340027076790
1.2551195616152637 5.0704097601993023 7.6862754174463515
0.0003823586033763 7.2427318497452031 7.6936094640233019
-1.2546945295265675 9.4159784689535719 7.6886098899796096
-2.5094952048380064 11.5892651084630955 7.6865900862372536
6.2728433548770717 0.7247559382462839 7.6929649270161091
5.0183022162155249 2.8979736886671801 7.6890834042716572
3.7641365685291110 5.0711846998068921 7.6791542563850097
2.5107123524610899 7.2437092355711110 7.6853341413204621
1.2559194847339581 9.4154723459811738 7.6836545605148077
0.0000986196227122 11.5892228338957004 7.6845296644807357
8.7823313271774044 0.7246334189817332 7.6849174327023553
7.5274853383194680 2.8978000264995876 7.6930519029103408
6.2727160886586413 5.0708556564934613 7.6872751028327011
5.0179896289546795 7.2434178607865061 7.6875263372011959
3.7640419875032487 9.4146953468622279 7.6883851804017143
2.5098055079815267 11.5890228611428245 7.6801530783002594
11.2916071620931895 0.7243836163357079 7.6812769338894498
10.0368146733785224 2.8975424520604549 7.6865750493883676
8.7819128997661231 5.0705250987179529 7.6863504857140370
7.5269421943267867 7.2431155219448060 7.6873015053905416
6.2722683058577200 9.4153767603027330 7.6937641649371971
5.0184125561083279 11.5886390378914719 7.6896368126172963
13.8005546888696706 0.7242076670228060 7.6868549790812120
12.5460014988419566 2.8972441524265720 7.6868184224224692
11.2911937733094199 5.0702552511991197 7.6868844158805274
10.0362811613081675 7.2431159960842013 7.6808612623876362
8.7815637148443439 9.4158689692461284 7.6853610411544873
7.5272828554789735 11.5888390513419424 7.6917419258612130
-0.0017980164650486 1.4499464085389244 1.0042527583995666
-1.2536582967152876 3.6252209996185738 0.9779917492271625
-2.5049691894389081 5.7967487208503172 1.0033277572445627
-3.7571455359776853 7.9676542780069957 1.0610143617384884
-5.0158070320924519 10.1403452039275201 0.9900854330316659
-6.2717987970849300 12.3150217733628686 0.9539819032854575
2.5085292911822132 1.4469778341075668 1.0613821440573710
1.2479718042405448 3.6146449210929803 1.0237560539398705
0.0077220024386541 5.8078513389350768 0.9409861435395848
-1.2416272794706207 7.9707556801428376 0.9854568848144349
-2.5088889490306250 10.1402164754170450 1.0179526131521315
-3.7629819641004802 12.3126571118301200 1.0065531424533605
5.0197630827901181 1.4461186333408902 1.0173795242857457
3.7626151340375538 3.6148808382174789 1.0614177236103406
2.4952848698497752 5.7704792974744903 0.9906493767519571
1.2827190096638741 8.0014301915712682 0.9751988460314130
-0.0059707614871543 10.1438733490254158 1.0040682533050918
-1.2544521996509774 12.3129720014951332 0.9862113863567712
7.5307543380873847 1.4422701590781706 0.9446677215132048
6.2750847995399184 3.6164827055158497 0.9755368374305325
5.0134947138590489 5.7858638413784824 1.0094520555094193
2.4937548092663508 10.0988233645521781 1.0397265643098623
1.2582732126104754 12.3004170562187944 1.0212603923920778
10.0369571110469895 1.4435606430859320 1.0052883459219475
8.7827828301673474 3.6199888238521574 0.9614697996022346
7.5243721874765628 5.7963356006017648 1.0045916535487378
6.2778198356778976 7.9761727366158954 0.9960406418890653
5.0322130323860135 10.1643951770160399 1.0182761140468821
3.7563247055762963 12.2999757984410429 1.0665188652267821
12.5435455308515689 1.4460199952885484 1.0255772961272414
11.2921886331936516 3.6208163902992405 1.0060813690533608
10.0381247720573707 5.7944384761339283 1.0528471579413352
8.7870879057249045 7.9682901806193049 1.0297523981580767
7.5326287376782259 10.1452241747705738 0.9440590736471856
6.2759634974297649 12.3228372439990892 0.9821533688873008
1.2544421350114920 0.7242127987067730 4.3442579772985237
-0.0001109944498111 2.8971147701539852 4.3469075569466602
-1.2544882650895808 5.0700901707591370 4.3679169069322530
-2.5090693390834233 7.2431208245807026 4.3192516184785656
-3.7638746104755554 9.4162413953448105 4.3255091226810940
-5.0184623864277622 11.5891843982877454 4.3710656031253734
3.7638496940592288 0.7243869544387976 4.3161485573306519
2.5090341628126076 2.8972802016120078 4.2957043594623139
1.2544203381277697 5.0701253749368504 4.3750157897653628
0.0000002572491299 7.2429532274168533 4.3988355620436614
-1.2545951493047096 9.4159656397641083 4.3499696499095402
-2.5091493537332372 11.5891227838217290 4.3470516818663718
6.2731170751681766 0.7242865749104295 4.3691673062045400
5.0183741771302879 2.8973115790488757 4.3195484894532052
3.7635453647489197 5.0703945150583172 4.3259866701516305
2.5086580406672288 7.2428958351549264 4.3743895841682825
1.2545963655794745 9.4158721324198869 4.3417648903238328
-0.0000036056997869 11.5888662890817002 4.3461680739010484
8.7821396338796553 0.7243630138601500 4.3743491726231429
7.5275881780091414 2.8972054318395695 4.3966830337129394
6.2728750276925824 5.0701529620140393 4.3488217420909852
5.0185014262498866 7.2431985820768316 4.3483442620360107
3.7637762836038240 9.4170718605029737 4.3162284406953573
2.5091292528881008 11.5892336569758694 4.2916513773682858
11.2912975760379215 0.7246707947505902 4.3266765315783431
10.0368327496930476 2.8974191160800862 4.3730729685505576
8.7822054388956801 5.0700879055166759 4.3443622777889503
7.5275363996398728 7.2430622328207956 4.3482599094568810
6.2729571901801640 9.4162625653266687 4.3682028260234214
5.0183773742724949 11.5894542021172207 4.3192344507917140
13.8004343230834756 0.7243642197081643 4.3498651303500084
12.5460247146717556 2.8973881532659345 4.3471001126434583
11.2915761680431466 5.0702357214644156 4.3143182687899388
10.0367839236953120 7.2431555131435985 4.2951507613167976
8.7820605303559542 9.4161758031195006 4.3740676300757118
7.5274881474608764 11.5890738419138177 4.3958369730477473
7.5275093155310646 13.0378237519758908 7.6922072088002515
-1.2546058797326158 2.1729600878560529 7.6893681812093480
12.5459024659166012 4.3459216168490729 7.6928866783053564
11.2912991794915794 6.5189107916054345 7.6864380601870641
10.0368054482364197 8.6917534058484467 7.6811384488961174
8.7821691411224876 10.8648132649010183 7.6904613111542561
2.5092368268830851 0.0002299269959645 7.6891473213965993
1.2546685721287727 2.1731099389845583 7.6862478018165898
0.0000720616388997 4.3459755476551596 7.6926585096368481
-1.2547123350231744 6.5188512594613037 7.6990460638441496
-2.5092549182291677 8.6917637151600342 7.6891186582805684
-3.7637617419880072 10.8647593094190889 7.6849817885565335
5.0183296030078788 0.0000886500180834 7.6942457295761999
3.7637249707839158 2.1731039948077617 7.6886632151516894
2.5092603696396250 4.3460198317418790 7.6812675578908562
1.2548485403454179 6.5191818947232809 7.6945270954130836
0.0000120369652900 8.6918533242856952 7.6963131681735755
-1.2545911990442620 10.8647474319556974 7.6896004438300949
7.5276411137384738 -0.0000104354496042 7.6912203246455322
6.2729044771783080 2.1730178943031575 7.6987622273355836
5.0183429763355871 4.3459158250963537 7.6854692487858509
3.7639142312819396 6.5187219091668496 7.6799033869303299
2.5087834420647543 8.6921464266994448 7.6830087557804303
1.2547068042765335 10.8648919770834116 7.6840883242448621
10.0368966153102814 -0.0000078047452130 7.6809840710482655
8.7823090539945650 2.1730116682516654 7.6929927532847628
7.5276185437372050 4.3460724607667238 7.6929461384765796
6.2728964462096739 6.5189325064957231 7.6898202342687663
5.0184291117641386 8.6918659659193800 7.6910096577555800
3.7635749579541318 10.8645692618270839 7.6894511358796791
5.0182553779451586 13.0376331536937133 7.6873091583465207
11.2914561615633371 2.1729566496366921 7.6864681554245404
10.0368907522981736 4.3460694312445849 7.6888986116508056
8.7822474196368336 6.5189488866500138 7.6849221244980130
7.5275695804303568 8.6917799998261778 7.6931921146631614
6.2727239865869890 10.8647560052380641 7.6989128733213725
2.5091974302838138 8.6914649829182977 1.0080543969867772
3.7029289854405292 8.0023730903440722 1.0095459151101147
