rBN 3-layer slab
1.0
15.0551462173000008 0.0000000000000000 0.0000000000000000
-7.5275736112000002 13.0376828894999992 0.0000000000000000
0.0000000000000000 0.0000169606000000 10.0278787613000002
B N C
107 107 2
Cartesian
1.2519433867635612 2.1686309837712789 0.9812613750920446
0.0021312324279744 4.3511226087335171 1.0211869474977993
-1.2500359889905475 6.5211154039196586 1.0236417550078600
-2.5035919493983272 8.6927101236106932 0.9875914507708479
-3.7643202234566195 10.8650540060290091 1.0013989104137155
-5.0178663227933855 13.0374029297028162 0.9991745557462526
3.7641429529478003 2.1696341603259794 0.9672581859534589
2.5022368683753493 4.3283744363827878 0.9843821758640116
1.2715505173935142 6.5227361209077541 1.0305513905816299
0.0036918077267777 8.7047260600450294 1.0141214058222077
-1.2611498077411618 10.8685736389608181 1.0023453265372562
5.0180119189816264 0.0005649938172377 1.0019318073099541
6.2753275114739209 2.1699683871522915 1.0220333035026035
5.0188069345312583 4.3426533604064108 0.9925270168209123
3.7430144760717177 6.4966883719211124 1.0046966652230485
1.2452456079142666 10.8550784770840636 0.9871095518145333
0.0021288949301356 13.0325405579730340 1.0171481813976440
8.7832999904834121 2.1714196973245308 1.0292447826405171
7.5265749463866198 4.3470828503114776 1.0212286313447749
6.2635794095036950 6.5241943598345342 1.0025493240819725
5.0273824658957560 8.7209648215609388 0.9997509822390899
3.7688776721873403 10.8482430515654560 0.9726469302507724
2.5094350688902898 13.0326895436211903 0.9799972051350709
11.2908343804278637 2.1718043451221578 0.9953016713745745
10.0373092897894942 4.3458257699248044 0.9995406454667507
8.7807916733930451 6.5190776205494920 0.9814313205146781
7.5308872837927465 8.6927132240484255 1.0132073335211254
6.2847305547622190 10.8793592246194581 1.0203158325930568
5.0146324149672203 13.0331902588449253 0.9846851434067188
13.7989044690400906 2.1737441127558230 1.0030744882390659
-2.5082148023554458 4.3470491168691883 1.0082949668439969
-3.7616872664368555 6.5188637012602078 0.9729387240819829
-5.0143208924100522 8.6913183830973875 0.9830721944497794
-6.2698180247422197 10.8659329502305511 1.0353173548511065
0.0022216160970463 0.0041856454821192 1.0209337695106984
0.0000541710750331 1.4487700825862675 4.3435765158124653
-1.2546480051234254 3.6214677589595161 4.3378374055336719
-2.5093853624109332 5.7942661887399316 4.3541467980666591
-3.7641220567616305 7.9673388603271196 4.3711134820575674
-5.0188874400345602 10.1402738526421530 4.3353011675716866
-6.2732459752678693 12.3133494097310692 4.3239984740337913
2.5090514977248426 1.4489115133169523 4.3666328262412168
1.2545975884756488 3.6216949846945137 4.3501178298500047
0.0000724872058078 5.7940848803822496 4.3160031048472609
-1.2545770151166233 7.9672344362796492 4.3362551404693273
-2.5094384572844777 10.1404252703568840 4.3488010483280615
-3.7641947994522127 12.3134516501074511 4.3452049200742442
5.0181339465302557 1.4491196529128318 4.3532204676969943
3.7638348759402405 3.6222370200956280 4.3702153724199446
2.5094235827344971 5.7948208368658971 4.3346420536582908
1.2556576904785195 7.9666494096694027 4.3241930549972043
0.0003716190995382 10.1403720278933029 4.3441621367245160
-1.2548243373303662 12.3136727225235845 4.3376737923313522
7.5274651985532879 1.4490562443118995 4.3163077776739085
6.2729103371731574 3.6222466651627512 4.3366138701627586
5.0182945417707083 5.7953549640050142 4.3476248427792656
3.7639927636257426 7.9673020930758511 4.3381216016430360
2.5105397098035991 10.1398312265666135 4.3689285997646330
1.2549151984080218 12.3136020962645905 4.3514011246434112
10.0369421387323570 1.4487359232482047 4.3345660952340808
8.7820522335383195 3.6217944283276813 4.3234286257194885
7.5272261139243417 5.7948538046946716 4.3431190318791177
6.2720876809305555 7.9672113633096666 4.3362497952786674
5.0181461302082697 10.1398659834316831 4.3542894312505620
3.7643661610837458 12.3133642425825514 4.3717487901676044
12.5461704739468161 1.4486357703883697 4.3483118058216386
11.2912553787117620 3.6214493976077589 4.3452572538494580
10.0364412940722794 5.7944911660591654 4.3671840270316213
8.7815214520092884 7.9673773707317377 4.3496974865848248
7.5269300531950920 10.1401182292253633 4.3162847665122399
6.2730378397834299 12.3133097676360137 4.3369092428518430
1.2544475940957134 0.7243409466515716 7.6872476854202265
0.0001052036585314 2.8973162806658017 7.6871212676368676
-1.2545275406376155 5.0699719464622328 7.6826231500905173
-2.5093896528870445 7.2428828817018536 7.6848875876046003
-3.7642338832407685 9.4160162416877853 7.6904850251862591
-5.0188214851769297 11.5889980816104075 7.6880842295908041
3.7635501494605936 0.7246139068873786 7.6856933367714193
2.5092568137250111 2.8976500224383432 7.6901162502676437
1.2549983625159595 5.0703980679519871 7.6886910893419813
0.0003404308738897 7.2426580939463987 7.6823852698940618
-1.2546939737150995 9.4159498988534320 7.6856969648814033
-2.5095197831147571 11.5892267932991615 7.6868044967467677
6.2728057296885762 0.7247653492722260 7.6827111631824856
5.0182989090717607 2.8979285312847258 7.6854281474400237
3.7640844758429650 5.0712008519139760 7.6908970306930131
2.5105744024199268 7.2436714235944502 7.6881334599879230
1.2558278186395149 9.4153173099048164 7.6847605879337575
0.0000702912826327 11.5892160112215823 7.6884158533110574
8.7822422693816975 0.7246640125621198 7.6876602834219483
7.5273912373316527 2.8977215874802233 7.6828000056926307
6.2727046733447578 5.0708023169023750 7.6876347755165684
5.0179695906823447 7.2433858974272765 7.6875412522495985
3.7640609715037341 9.4145466483837268 7.6860985952756709
2.5097680065536969 11.5889667389224247 7.6913554623305975
11.2915869258243653 0.7243998716083214 7.6902886496976048
10.0366766514585439 2.8974149826308091 7.6870169602393998
8.7817936974301922 5.0703276327677704 7.6874401071615113
7.5268947056274449 7.2430805416785358 7.6876201675042868
6.2723059071448901 9.4153275633303881 7.6811615938142914
5.0184744282894558 11.5885306602364615 7.6864566140490691
13.8005998460994661 0.7242116317928172 7.6868677617870285
12.5460036148041478 2.8972431013443853 7.6869104810301900
11.2911607707632395 5.0700768603937609 7.6868109193580585
10.0362675934241157 7.2430029920698527 7.6909261196517500
8.7815270449908134 9.4158279038962824 7.6879114147014391
7.5272534987686068 11.5887355618736674 7.6837129105756352
-0.0019653722182663 1.4495907745795891 1.0042883274584886
-1.2535349036728860 3.6250049318307824 1.0217777990531460
-2.5047473855158140 5.7968578426862090 1.0046711721073749
-3.7567626489900321 7.9678580831774068 0.9661344224971019
-5.0155497266939237 10.1404700009615656 1.0136222424084866
-6.2718428672880124 12.3148130834969294 1.0377009558831418
2.5083966118900380 1.4468111463934827 0.9661012748713258
1.2479248397333971 3.6143270749989744 0.9911314248727324
0.0078499260914415 5.8077010636726447 1.0466955394972985
-1.2415550827432720 7.9707481378814773 1.0159357622846890
-2.5087789710294159 10.1404451409342897 0.9948591196925576
-3.7627882218240130 12.3129660156223668 1.0026099535170254
5.0197470130602646 1.4463846483535350 0.9954268429979442
3.7622457862428451 3.6148156311122093 0.9660421732799821
2.4953352831575093 5.7705583261270679 1.0135711911123757
1.2828785142380965 8.0016064501980466 1.0243846395568923
-0.0059586374307919 10.1438646753519883 1.0035670718440552
-1.2542790464405931 12.3131728728272360 1.0160192299224191
7.5307488921655148 1.4427217151502092 1.0437016160349559
6.2747969499642764 3.6168448315438249 1.0233409537415696
5.0133197144412316 5.7859701660632457 1.0005320160006945
2.4938284955400305 10.0990590686075858 0.9813684053755231
1.2582611413760774 12.3005113032183377 0.9920675378816119
10.0369706540892896 1.4438412003897683 1.0033646521292221
8.7829143813838737 3.6203777445671785 1.0326986909074152
7.5244192201966351 5.7963830293791530 1.0042638933974140
6.2780084306066870 7.9760611533605843 1.0094744569193712
5.0322423635861409 10.1644753458397918 0.9951534390987119
3.7561488643546528 12.3000407624409256 0.9630096551694001
12.5433482684096873 1.4460097805852492 0.9900482909936289
11.2924102678873606 3.6211742545399801 1.0030186819455205
10.0384050560808813 5.7947317797934410 0.9717805303790774
8.7875523207442985 7.9682193507410455 0.9871982827383528
7.5327745645977604 10.1448596604845118 1.0442818898843949
6.2757332350859718 12.3226059058786781 1.0188695418630251
1.2545811308064496 0.7244726171736190 4.3476345057551216
-0.0001095457473578 2.8973227287904497 4.3460108483462410
-1.2548552057116216 5.0701221334059428 4.3318103911924775
-2.5092031647308790 7.2431766083711588 4.3640245284227381
-3.7637265496066332 9.4160542656134290 4.3601329789001557
-5.0184237829894478 11.5890251792377441 4.3297285853307379
3.7636602507201924 0.7243492443495133 4.3663401351031697
2.5091099452191217 2.8973264023699974 4.3798154379573129
1.2542808215430663 5.0700529393042322 4.3274375357074488
-0.0001344426458637 7.2431248293662414 4.3103230847303013
-1.2544609245011917 9.4161885197109125 4.3434313609552708
-2.5092329148361849 11.5890328320871294 4.3455636097530457
6.2728665609530845 0.7243446511113728 4.3310295193132120
5.0182909314995605 2.8973381041768942 4.3640656368254733
3.7636243368160907 5.0702012247065706 4.3594296439568065
2.5084263864085932 7.2427404294861244 4.3302834767619967
1.2547735641483129 9.4161692808895392 4.3457343765855159
0.0000954105883050 11.5890929915765746 4.3459664802152886
8.7822470701971991 0.7242582573571598 4.3272929833260694
7.5276011421779705 2.8972635713035171 4.3127455413945084
6.2730188110181242 5.0702875303076711 4.3450328186446674
5.0184259816660663 7.2430787610136402 4.3470813321904638
3.7637621121702494 9.4167571898111948 4.3690559262542079
2.5093266800263927 11.5891607378091361 4.3817780985477137
11.2914760256742301 0.7243537979863428 4.3593042960812705
10.0368498803071038 2.8971374629826747 4.3284760696190636
8.7822855561907982 5.0702291001638145 4.3477422558611138
7.5275671878765085 7.2432534970124642 4.3454071125525893
6.2727480432550875 9.4162529746694172 4.3312852729387670
5.0183702670419370 11.5892951127092889 4.3646243284762285
13.8005893678535685 0.7244938137073063 4.3440392322490977
12.5458939349309002 2.8972103061489536 4.3458199594278790
11.2913135237826676 5.0701216469337682 4.3676438852250659
10.0368205493572376 7.2431739175664278 4.3804321478574053
8.7821164582891758 9.4161169469229264 4.3277193396722478
7.5274893905186042 11.5891907842307589 4.3130608058938096
7.5274786785982313 13.0376081703955489 7.6879538725317458
-1.2545962786615945 2.1729744113679441 7.6898054212176259
12.5460036242846655 4.3458436675290919 7.6873922374843877
11.2913811418628551 6.5187565122670295 7.6915337864527720
10.0367050757705378 8.6918282969461114 7.6950899486853483
8.7820376506639217 10.8647367721428001 7.6887154626595979
2.5090652893985967 -0.0000677189121783 7.6898751329790462
1.2544885985739136 2.1729931633101547 7.6919262512865885
0.0000075633508628 4.3460358011696689 7.6877974175645312
-1.2545423669559741 6.5187671546005479 7.6831177369061079
-2.5091519052781348 8.6917649701990616 7.6903356757004033
-3.7638495389290028 10.8647552179699964 7.6926121377043968
5.0183898782574099 0.0000076901460623 7.6864369929537029
3.7637438853276279 2.1729743838447382 7.6899123613432314
2.5090996881594334 4.3461153331037883 7.6954651818885660
1.2546771772236356 6.5191340025840798 7.6902607724692542
-0.0000661190132904 8.6916741755746703 7.6870982480975627
-1.2545893406882695 10.8647527091950433 7.6903078430063463
7.5275877250249197 0.0000746384743503 7.6889342967584389
6.2730211229317110 2.1729637666336523 7.6833421571955682
5.0183973573562941 4.3459316032040398 7.6914781439815236
3.7637912412012056 6.5187753174887852 7.6890019404303969
2.5086928519496494 8.6920222966155443 7.6838701054600120
1.2545799806634554 10.8647610565164410 7.6952458490425020
10.0367489074536156 0.0001067756194197 7.6951587863032298
8.7821254724892377 2.1729841719562151 7.6871641688033296
7.5275373676474828 4.3458443606014745 7.6871203156941776
6.2728760216911938 6.5188990619488330 7.6901746498204684
5.0185458239489069 8.6917783317163355 7.6815990571009287
3.7636286587710184 10.8644156205652465 7.6936461354709191
5.0183517013009702 13.0376140714359394 7.6913675460761564
11.2913571300184081 2.1729920521885786 7.6916715127913635
10.0367244280470960 4.3457818228357290 7.6899273455341186
8.7820789553746170 6.5187845120103942 7.6924690082721430
7.5275528263618261 8.6918228015002583 7.6863352744033966
6.2728878997821775 10.8646535484959195 7.6837046447716491
2.5094278115453603 8.6918626815344560 1.0030118351332000
3.7030908533513123 8.0026737049000989 1.0051873188215683
