rBN 3-layer slab
1.0
15.0551462173000008 0.0000000000000000 0.0000000000000000
-7.5275736112000002 13.0376828894999992 0.0000000000000000
0.0000000000000000 0.0000169606000000 10.0278787613000002
B N C
107 107 2
Cartesian
1.2520552969911483 2.1689273769124977 1.0221352181026753
0.0020052015335481 4.3513907331191870 0.9823723376806545
-1.2501394458263839 6.5211406453566347 0.9794678859827302
-2.5036731288879830 8.6925226915401712 1.0151797214533334
-3.7644771345348338 10.8647694730280655 1.0018710102824970
-5.0178958077176672 13.0373752732261341 1.0041696360329664
3.7643251772296269 2.1696125783474720 1.0361262462513046
2.5023884262847416 4.3283869514892892 1.0189377245136388
1.2714288196986292 6.5226714594451272 0.9738652781963750
0.0036936640590210 8.7047164557296526 0.9885102576600469
-1.2612177323117992 10.8684972980942902 1.0003934444801141
5.0178303476909107 0.0003064888833403 1.0013383391259791
6.2754159981976541 2.1696632667538616 0.9812520956693258
5.0192309337413148 4.3425570080817799 1.0108063968625465
3.7430146205134651 6.4964381597123451 1.0005367516102315
1.2452189488310790 10.8550635223595613 1.0155231636840567
0.0019864167015725 13.0323634060172662 0.9856229277638687
8.7831890583381185 2.1711050551113065 0.9739677034418039
7.5266690266968181 4.3469717014894700 0.9823214032479899
6.2636265847212496 6.5243071691751302 1.0011739072799761
5.0271827003295497 8.7208504288997961 1.0054825634294846
3.7688914602649000 10.8480983042801125 1.0317729749591316
2.5094880634917658 13.0325746346807794 1.0231181807825396
11.2908260786977159 2.1715173793403619 1.0080489622661684
10.0370860988660660 4.3454572083066658 1.0037999804442015
8.7806273716283609 6.5191115644016850 1.0221190628787724
7.5305864676260343 8.6930400851933349 0.9901271216882597
6.2846701813881074 10.8795234197873132 0.9830059598681898
5.0149029401366185 13.0332220411771900 1.0188779118670435
13.7990070679036467 2.1739851484342156 1.0003588777913937
-2.5084731074012767 4.3469335937637812 0.9950557175657501
-3.7618951331683035 6.5186322656783480 1.0302724896766806
-5.0146320593630209 8.6912335288168467 1.0202122843701880
-6.2699414296360452 10.8660760729004480 0.9680659057615016
0.0023932134384449 0.0044587387132164 0.9824672669188781
-0.0000729136977489 1.4485085442310635 4.3446571774928895
-1.2544779027357948 3.6213860493656669 4.3504068198904990
-2.5091999392042048 5.7943134830138687 4.3340702029178262
-3.7642046166215355 7.9673591499385310 4.3170378011834361
-5.0189188011928438 10.1403983970421869 4.3526534256955314
-6.2732826157184309 12.3133432024664646 4.3638361334883680
2.5090827591930789 1.4488737852090656 4.3212014987675360
1.2546931596640547 3.6215620003028994 4.3381559643274326
0.0002955538351290 5.7940163244820164 4.3724250197759416
-1.2546398838852406 7.9670670000110695 4.3525945222268367
-2.5095526393065657 10.1404618215575315 4.3398536231652027
-3.7640516848947527 12.3136737024986207 4.3427895288085763
5.0182573028207678 1.4491338462685874 4.3347353631175274
3.7637316611479230 3.6222957139013361 4.3169424593701953
2.5095536433838292 5.7950198127089063 4.3538060977133046
1.2557788077453749 7.9665921129146113 4.3659706401884542
0.0002388086974151 10.1401176382354379 4.3450625325637633
-1.2547095727526341 12.3135712576084053 4.3509824183493899
7.5275233094963108 1.4489900903765009 4.3718446275744958
6.2727386137508647 3.6221811782662137 4.3508756012989744
5.0181728520752236 5.7954318947738290 4.3383195938595280
3.7640370454503977 7.9673837426984395 4.3355685870963088
2.5104382706029411 10.1399184799324011 4.3212342547541418
1.2548232744259458 12.3134852642289676 4.3374477294842269
10.0369060332101476 1.4489439112128224 4.3536552630079459
8.7820407719239668 3.6218755056181076 4.3644201300868648
7.5271283068815071 5.7946583352644243 4.3441775066347184
6.2722202701674021 7.9671302876818979 4.3496945709515620
5.0182369625077667 10.1400715228863980 4.3341579962233840
3.7642151901631347 12.3135365747572187 4.3166766909490022
12.5460470044389005 1.4487309125132104 4.3399346395809433
11.2914262089312754 3.6217333283027489 4.3428137492148222
10.0365222273695558 5.7945213559847950 4.3206640114585966
8.7815649101705251 7.9672040547368042 4.3377912848831652
7.5270254846428921 10.1400454948126271 4.3708732949896323
6.2728838041210624 12.3132957271509440 4.3513645327650403
1.2545077781074010 0.7244419944361047 7.6865728016613009
0.0001224074610009 2.8972863804584348 7.6866017463847642
-1.2545503048510707 5.0699880038614422 7.6907425023716716
-2.5094532006104293 7.2429308662732828 7.6882394359727213
-3.7642569774618844 9.4160408688425825 7.6831387386963126
-5.0187510867795710 11.5891220200197385 7.6855964854371850
3.7636173451102142 0.7247300211558293 7.6879870780597903
2.5093077570289428 2.8977064278932625 7.6837304522196712
1.2550953217954031 5.0704074217498389 7.6867585518254771
0.0003739730574790 7.2427170985854419 7.6913646251974539
-1.2546944183642739 9.4159727549335432 7.6880273049599683
-2.5095001204933567 11.5892574454303094 7.6866329683391568
6.2728358298393729 0.7247578204514723 7.6909141742493841
5.0183015547867713 2.8979646571906894 7.6883523529053308
3.7641261499918817 5.0711879302283096 7.6815028112466104
2.5106847624528577 7.2437016731757788 7.6858940050539539
1.2559011515150695 9.4154413387659037 7.6838757659985983
0.0000929539546963 11.5892214693608775 7.6853069022467997
8.7823135156182630 0.7246395376978105 7.6854660028462742
7.5274665181219049 2.8977843386957147 7.6910015234667988
6.2727138055958642 5.0708449885752440 7.6873470373694746
5.0179856213002125 7.2434114681146609 7.6875293202108761
3.7640457843033461 9.4146656071665262 7.6879278633765056
2.5097980076959607 11.5890116366987446 7.6823935551063274
11.2916031148394254 0.7243868673902306 7.6830792770510801
10.0367870689945260 2.8975169581745259 7.6866634315585740
8.7818890592989369 5.0704856055279164 7.6865684100035319
7.5269326965869183 7.2431085258915520 7.6873652378132906
6.2722758261151537 9.4153669209082640 7.6912436507126163
5.0184249305445539 11.5886173623604698 7.6890007729036505
13.8005637203156297 0.7242084599768083 7.6868575356223756
12.5460019220343941 2.8972439422101348 7.6868368341440130
11.2911871728001838 5.0702195730380479 7.6868697165760329
10.0362784477313571 7.2430933952813312 7.6828742338404590
8.7815563808736385 9.4158607561761585 7.6858711158638773
7.5272769841369005 11.5888183534482874 7.6901361228040974
-0.0018314876156921 1.4498752817470573 1.0042598722113509
-1.2536336181068073 3.6251777860610157 0.9867489591923593
-2.5049248286542891 5.7967705452174956 1.0035964402171251
-3.7570689585801547 7.9676950390410779 1.0420383738902113
-5.0157555710127459 10.1403701633343299 0.9947927949070301
-6.2718076111255465 12.3149800353896808 0.9707257138049943
2.5085027553237782 1.4469444965647498 1.0423259702201619
1.2479624113391152 3.6145813518741789 1.0172311281264430
0.0077475871692116 5.8078212838825900 0.9621280227311275
-1.2416128401251509 7.9707541716905652 0.9915526603084857
-2.5088669534303834 10.1402622085204932 1.0133339144602167
-3.7629432156451870 12.3127188925885687 1.0057645046660935
5.0197598688441474 1.4461718363434191 1.0129889880281855
3.7625412644786120 3.6148677967964251 1.0423426135442690
2.4952949525113222 5.7704951032050058 0.9952337396240407
1.2827509105787185 8.0014654432966239 0.9850360047365089
-0.0059683366758818 10.1438716142907310 1.0039680170128846
-1.2544175690089006 12.3130121757615552 0.9921729550699008
7.5307532489030100 1.4423604702925783 0.9644745004175550
6.2750272296247900 3.6165551307214447 0.9850976606927400
5.0134597139754851 5.7858851063154351 1.0076680476076743
2.4937695465210870 10.0988705053632604 1.0280549325229946
1.2582707983635959 12.3004359056187038 1.0154218214899846
10.0369598196554488 1.4436167545466994 1.0049036071634023
8.7828091404106541 3.6200666079951618 0.9757155778632707
7.5243815940205776 5.7963450863572428 1.0045261015184732
6.2778575546636555 7.9761504199648332 0.9987274048951265
5.0322188986260397 10.1644112107807896 1.0136515790572482
3.7562895373319676 12.2999887912410202 1.0458170232153057
12.5435060783631940 1.4460179523478887 1.0184714951005187
11.2922329601323934 3.6208879631473883 1.0054688316317928
10.0381808288620729 5.7944971368658305 1.0366338324288837
8.7871807887287847 7.9682760146436538 1.0212415750741319
7.5326579030621321 10.1451512719133614 0.9641036368946274
6.2759174449610056 12.3227909763750070 0.9894966034824456
1.2544699341704835 0.7242647624001423 4.3449332829898433
-0.0001107047093204 2.8971563618812781 4.3467282152265767
-1.2545616532139889 5.0700965632884989 4.3606956037842979
-2.5090961042129143 7.2431319813387942 4.3282062004673998
-3.7638449983017708 9.4162039693985342 4.3324338939249056
-5.0184546657400997 11.5891525544777458 4.3627981995664467
3.7638118053914211 0.7243794124209407 4.3261868728851551
2.5090493192939101 2.8972894417636059 4.3125265751613133
1.2543924348108291 5.0701108878103271 4.3655001389537800
-0.0000266827298688 7.2429875478067309 4.3811330665809898
-1.2545683043440061 9.4160102157534684 4.3486619921186866
-2.5091660659538264 11.5891047934748084 4.3467540674437073
6.2730669723251582 0.7242981901506181 4.3615397488262744
5.0183575280041417 2.8973168840744794 4.3284519189276596
3.7635611591623537 5.0703558569879679 4.3326752649126661
2.5086117098155016 7.2428647540211664 4.3655683626870250
1.2546318052932424 9.4159315621138173 4.3425587875761691
0.0000161975578315 11.5889116295806751 4.3461277551638968
8.7821611211431634 0.7243420625595519 4.3649379347637289
7.5275907708429068 2.8972170597323590 4.3798955352492532
6.2729037843576911 5.0701798756727650 4.3480639574017212
5.0184863373331225 7.2431746178641934 4.3480916760669013
3.7637734493171089 9.4170089263646179 4.3267939378071274
2.5091687383157590 11.5892190731425213 4.3096767216041707
11.2913332659651839 0.7246073953977408 4.3332020844789279
10.0368361758158589 2.8973627854606039 4.3641535887642595
8.7822214623547037 5.0701161444461036 4.3450382734033823
7.5275425572871999 7.2431004856591290 4.3476893500760223
6.2729153607951487 9.4162606471952177 4.3608193154064905
5.0183759528263829 11.5894223842356343 4.3283124263286172
13.8004653320374935 0.7243901385079927 4.3486999507298263
12.5459985587235838 2.8973525838425385 4.3468440820003424
11.2915236391910501 5.0702129065582868 4.3249833920769643
10.0367912488276971 7.2431591940281637 4.3122070386249192
8.7820717159425978 9.4161640318801858 4.3647979719950190
7.5274883960724219 11.5890972303772060 4.3792817396169594
7.5275031881444976 13.0377806356598231 7.6913565415465497
-1.2546039595184117 2.1729629525584313 7.6894556292110039
12.5459226975902141 4.3459060269850767 7.6917877901411620
11.2913155719658338 6.5188799357377532 7.6874572054402064
10.0367853737432426 8.6917683840679789 7.6839287488539636
8.7821428430307744 10.8647979663493732 7.6901121414553248
2.5092025193861871 0.0001703978143359 7.6892928837130894
1.2546325774178009 2.1730865838496776 7.6873834917105892
0.0000591619812923 4.3459875983580618 7.6916862912223847
-1.2546783414097342 6.5188344384891526 7.6958603984565412
-2.5092343156389609 8.6917639661678390 7.6893620617645357
-3.7637793013762066 10.8647584911292689 7.6865078583861068
5.0183416580577846 0.0000724580436792 7.6926839822517001
3.7637287536926580 2.1730780726151568 7.6889130443899978
2.5092282333435865 4.3460389320142605 7.6841070826903985
1.2548142677210616 6.5191723162954407 7.6936738308243173
-0.0000035942304261 8.6918174945434910 7.6944701841583729
-1.2545908273730635 10.8647484874035651 7.6897419236653448
7.5276304359957633 0.0000065793351867 7.6907631190681132
6.2729278063289886 2.1730070687692566 7.6956782133075805
5.0183538525397289 4.3459189807178902 7.6866710278249855
3.7638896332657930 6.5187325908312364 7.6817230976303437
2.5087653240417334 8.6921216006826647 7.6831810257163466
1.2546814395539179 10.8648657929700168 7.6863198292043897
10.0368670737389483 0.0000151113277135 7.6838190140992584
8.7822723376934988 2.1730061689925755 7.6918270363884762
7.5276023085192598 4.3460268407336740 7.6917809739200989
6.2728923613059786 6.5189258175863447 7.6898911173791067
5.0184524542010926 8.6918484390787718 7.6891275376246497
3.7635856981175091 10.8645385335747164 7.6902901357979268
5.0182746426163209 13.0376293372421586 7.6881208358924482
11.2914363552543513 2.1729637301470692 7.6875088268979050
10.0368574874479588 4.3460119095628134 7.6891043584274685
8.7822137267843896 6.5189160117220899 7.6864315012528390
7.5275662296166503 8.6917885601609939 7.6918207466112092
6.2727567692260271 10.8647355138896344 7.6958712276114278
2.5092435065361229 8.6915445226415287 1.0070458846160617
3.7029613590226860 8.0024332132552782 1.0086741958524053
