rBN 3-layer slab
1.0
15.0551462173000008 0.0000000000000000 0.0000000000000000
-7.5275736112000002 13.0376828894999992 0.0000000000000000
0.0000000000000000 0.0000169606000000 10.0278787613000002
B N C
107 107 2
Cartesian
1.2520605201473942 2.1688187919777189 0.9822327418571027
0.0020439178632061 4.3511596751363850 0.9726683566782630
-1.2501187221219163 6.5209629887328981 1.0138144771888298
-2.5037018448241994 8.6925516988237881 1.0305413414844020
-3.7644761712755428 10.8649570560258848 1.0074368623229430
-5.0178278481924519 13.0374940372761809 1.0010276031354106
3.7643350016602657 2.1696285504625075 1.0083066256242432
2.5022115195911634 4.3283652686557632 0.9900626699591750
1.2713719667293022 6.5226958774620947 0.9954097625155492
0.0036518663090312 8.7047464676840338 1.0168539920992048
-1.2612046112310573 10.8685005412348286 1.0012424200898862
5.0179971621820139 0.0003951598119813 0.9968062918086870
6.2754348511754685 2.1698571343354605 1.0148645379036616
5.0189878144651114 4.3426908165591831 1.0315198315011891
3.7428825297839126 6.4965606620372940 1.0094093048062300
1.2452672611160907 10.8550483025577034 0.9841793464098347
0.0020342432775793 13.0323666449043341 0.9726637609112658
8.7831352431577745 2.1712855332303880 0.9941675016714427
7.5266912976540379 4.3472442424238373 1.0184152214057054
6.2636783686243209 6.5243773754040966 1.0017000397366145
5.0273571624129039 8.7207924228425764 0.9963363604726184
3.7689327437256850 10.8480602156440202 1.0090134271598423
2.5093268686545027 13.0325246048187999 0.9897432976330558
11.2906737595885129 2.1715633066726516 1.0064790159539601
10.0372202521865610 4.3456874500629423 1.0011109495954009
8.7808531940736465 6.5192670308956071 0.9836636808018925
7.5308289598189724 8.6929008727769368 0.9724924972480766
6.2847357961027308 10.8793513676957190 1.0139489661353460
5.0146910442185648 13.0331312378185444 1.0315053803881251
13.7989377996866232 2.1738335607998103 1.0017577643818925
-2.5083481186792196 4.3468082200715799 0.9979383770893280
-3.7617278166913892 6.5186668874150326 1.0090242438242689
-5.0144832313277625 8.6913534993054427 0.9892494182213989
-6.2699348290624934 10.8661059728742071 0.9952926566181978
0.0023009509293152 0.0044035969926495 1.0195470647632743
-0.0000524965065228 1.4485385641029385 4.3463649111909737
-1.2546246771869316 3.6215330603641798 4.3850745616489055
-2.5094177334869343 5.7944436884066279 4.3539735079969732
-3.7641770177622336 7.9674276586787576 4.3227500221732065
-5.0186989716017987 10.1402954822152829 4.3325820115277143
-6.2731652968239180 12.3131765924782250 4.3248134929838011
2.5088904741384601 1.4488921446948304 4.3630600003098534
1.2545811347494775 3.6216526841419414 4.3950913491781671
0.0002497830188283 5.7940566627863781 4.3665010287633521
-1.2545480701966736 7.9671113994397267 4.2961010475792483
-2.5093518085611892 10.1404611671943279 4.3027198034864833
-3.7640915404253810 12.3136151886903296 4.3410233793965567
5.0180575430363721 1.4492815672817154 4.3532200626279840
3.7637552137182499 3.6223183394492038 4.3219352516604372
2.5096879588303027 5.7948923574268143 4.3328306220704258
1.2558047209300502 7.9664807252710643 4.3264267118336921
0.0002689982046864 10.1401591997041329 4.3468054563076564
-1.2548250276305832 12.3137435322085196 4.3850644373940248
7.5275622766967434 1.4490316768551244 4.3660856574508298
6.2728808270539087 3.6221175354260500 4.2954120898995942
5.0183433240328563 5.7953487938055082 4.3015041139556791
3.7640694900576408 7.9674499152025477 4.3337741699027363
2.5103393271713919 10.1398845391585457 4.3637959914101696
1.2548126609798991 12.3135680861559660 4.3956130949846601
10.0371201960907790 1.4488067559055571 4.3319608498917850
8.7821453983327231 3.6216628053655460 4.3244854168586668
7.5271056734412465 5.7946130047326729 4.3458872095850580
6.2720521427358609 7.9672310493014180 4.3835636511823850
5.0180628262798077 10.1401288526371953 4.3532679180525617
3.7642773917407975 12.3135261307746404 4.3225934019695913
12.5462423305676030 1.4486887460557303 4.3024879847471187
11.2913765446456917 3.6216491909991197 4.3410937662098972
10.0363020202046727 5.7945041728841549 4.3633772977679275
8.7814382347992570 7.9672857744247541 4.3951324670886871
7.5270292945329693 10.1400622663276199 4.3659733021191691
6.2730313167765646 12.3132560581633772 4.2960889747429958
1.2544786051659249 0.7244034615578767 7.6867171340281111
0.0001926550477933 2.8972739393864106 7.6690907005744977
-1.2544789334211621 5.0699634005653822 7.6656191319085787
-2.5093705781527467 7.2429374234585300 7.6894952810270514
-3.7642800097990952 9.4160684405211601 7.7078060578804459
-5.0188727084785727 11.5891055136490113 7.7015095846301955
3.7636707064803434 0.7246129855236153 7.6756834725515564
2.5094034150238831 2.8976182916584010 7.6779682016272304
1.2550249092051804 5.0704173447789609 7.6840189676305135
0.0002576836869186 7.2427806563167554 7.6957999776898136
-1.2547577942651629 9.4160345785279720 7.7029171169304362
-2.5095207503131221 11.5892272015969304 7.6881219516129740
6.2728856582420365 0.7247625468505000 7.6658155144885134
5.0183338534619315 2.8979700951161695 7.6902875962157582
3.7640586836144543 5.0712167069585092 7.7068610464460940
2.5105344547222588 7.2437199934630474 7.7017541417498459
1.2558538531874124 9.4153762097410620 7.6843441075769423
0.0001658722116873 11.5892137479030026 7.6686370372463859
8.7822895617839762 0.7247125397718532 7.6821743673157838
7.5273410610698228 2.8978861391985111 7.6955841595008270
6.2726459712453746 5.0709142715380260 7.7032548317657774
5.0179626909031487 7.2433671325006568 7.6889043365952006
3.7641320502926976 9.4145248281462521 7.6759085619554277
2.5099057022544322 11.5889384615103843 7.6768093635024064
11.2915478478839830 0.7244207783658683 7.7079080938478048
10.0366464299805074 2.8975277345137260 7.7021102620054265
8.7818660299716562 5.0704545228652638 7.6869503639442343
7.5270228967624675 7.2430927788327573 7.6697517223027507
6.2723495619547034 9.4153255011108978 7.6657551457001931
5.0184751591683305 11.5885524201528494 7.6903976462546986
13.8005062367997802 0.7242666234487971 7.7023196255149946
12.5459914561494958 2.8972238039134526 7.6882439018946584
11.2912783632282245 5.0700983053517605 7.6749872560798460
10.0364317162309504 7.2430252932867685 7.6767533583573604
8.7815586676498167 9.4158871149868428 7.6823140555519043
7.5271636446149737 11.5888625584449461 7.6945200611872320
-0.0018504452083374 1.4498249385914270 1.0032134244566644
-1.2535760461223064 3.6250410824741199 0.9837520826402988
-2.5048415231531891 5.7966120584383098 1.0143738887507643
-3.7569884996466194 7.9676830901018976 1.0191127944209528
-5.0157377891829418 10.1404861259894705 0.9959093455235934
-6.2718104229229850 12.3150179614570181 1.0114121290083378
2.5085284425787124 1.4469619675913938 0.9952311339384884
1.2478676651652141 3.6144061391836191 0.9659519610588216
0.0077333534263103 5.8076112298269278 0.9898663629455904
-1.2416318093119429 7.9706227814861217 1.0383660624562652
-2.5088632003787592 10.1403658398169068 1.0268231784852040
-3.7628157210202300 12.3129344484195116 1.0044041571968430
5.0198488394682110 1.4462510413105072 1.0137823801814498
3.7623687393371625 3.6148379460359092 1.0198183523749114
2.4951871405971975 5.7704954011953840 0.9986170936867663
1.2828194936767752 8.0015763138367753 1.0088841988627579
-0.0059423616395790 10.1439089554022051 1.0026690779683136
-1.2543094970141799 12.3130628456257512 0.9821571563051742
7.5306993525350094 1.4424378934428574 0.9897710633909594
6.2749474069627347 3.6168349577086709 1.0417562306491361
5.0134071078167652 5.7860548402729854 1.0254837501332799
2.4938242217454181 10.0989801178206644 0.9991533507197943
1.2581725438847655 12.3003680508300555 0.9686456648001313
10.0367832656285891 1.4436194005653473 0.9947998000709291
8.7828549885560641 3.6203052665749995 1.0094489616617142
7.5245331697182891 5.7966008130772702 1.0033930182928352
6.2780468128734812 7.9761841604130517 0.9832759088820171
5.0322726345210835 10.1643203931496817 1.0110371596699113
3.7561133219956213 12.2998786766506605 1.0195250726899621
12.5433849145487741 1.4459866574609068 1.0258901561084395
11.2922936843764408 3.6209832714269070 1.0045869873819471
10.0383540628782910 5.7946604721304267 0.9972999593007476
8.7874588082430556 7.9683476183637891 0.9666963665700798
7.5327204588406191 10.1449877320769257 0.9895728620743218
6.2758165613230332 12.3226132492917664 1.0422376649099343
1.2544838180548508 0.7242739033564830 4.3476548891975551
-0.0001511681701862 2.8972714690807866 4.4040344704803100
-1.2547297583987975 5.0701858357449261 4.3912585453524260
-2.5091903552035264 7.2432139736712005 4.3092845920948175
-3.7636926989747077 9.4161600114509181 4.3005815938207927
-5.0183242095407596 11.5890154725315835 4.3255309945968596
3.7636175750473795 0.7244228303982213 4.3620196479700697
2.5089409818165800 2.8973331260041535 4.3760237744943122
1.2544097329617103 5.0700697572744771 4.3837414187170065
0.0000154230527887 7.2429533152111878 4.3181024350173942
-1.2544373594781575 9.4160839432827430 4.2919109652424305
-2.5091473599160072 11.5891575541444620 4.3438150715102060
6.2729420143870760 0.7244064023702802 4.3905838360411469
5.0182648488473065 2.8973540993650539 4.3092051288813922
3.7636386096556769 5.0702828744583330 4.3001898776579388
2.5085753514105167 7.2427425235397944 4.3283006358941991
1.2546923855280208 9.4160255334038538 4.3455806253593989
0.0000118886151310 11.5890496657128956 4.4041512903045366
8.7822736419358733 0.7242845510432404 4.3837235447232272
7.5277069535423431 2.8971281552740389 4.3183212735498548
6.2730139362466968 5.0701568695352748 4.2930966211928148
5.0184671747494063 7.2431510046508878 4.3451763258462650
3.7636858171539198 9.4169104787084610 4.3625161882664196
2.5091226031311495 11.5892289110468738 4.3756280842255615
11.2914904676338566 0.7245103844619408 4.2998606740500138
10.0369667443759791 2.8971898140490633 4.3249814651392322
8.7822096862586481 5.0700777293206061 4.3477698964688889
7.5274661753247747 7.2431736082006806 4.4041225208086408
6.2728058294324240 9.4162887780686244 4.3904143682124390
5.0183404804842677 11.5894243408259605 4.3099508193148770
13.8005947844955070 0.7244209492451861 4.2928516767979445
12.5459963760908977 2.8973642010009804 4.3441272003533120
11.2913102616296914 5.0702422376295813 4.3626138645352386
10.0366650500741166 7.2432054789708369 4.3766318914000895
8.7821481889316999 9.4160937286186073 4.3844102172745760
7.5275887918410778 11.5890230027610528 4.3185979031892563
7.5273676322910035 13.0377427235337056 7.7034574859041429
-1.2546657300216615 2.1728727058147732 7.6890569256702648
12.5459856933912715 4.3458083330689146 7.6702641774095168
11.2915297546034807 6.5188217436021576 7.6778167998718407
10.0368794478872800 8.6918542820524820 7.6935296633018195
8.7820192310064069 10.8649079102565924 7.7003358168742455
2.5091238561873794 0.0000240807085189 7.6916342057603826
1.2546585722304637 2.1729585926795076 7.6733573935471906
0.0000758774931403 4.3460208318880822 7.6640277535718502
-1.2546217479653268 6.5189229495518353 7.6835747945970541
-2.5092008320514925 8.6918213170419687 7.7139677584656940
-3.7638734269133289 10.8647488565861448 7.7124068534287229
5.0183906407604484 -0.0000140713693074 7.6706262734064987
3.7638983125845926 2.1730161915516408 7.6790538972843922
2.5092609154237353 4.3460896821260366 7.6949538961367061
1.2546477989050768 6.5192610902766805 7.7042327741270036
-0.0001327336271552 8.6918161774295193 7.7058065388190089
-1.2546452959964773 10.8646758215441768 7.6895519992877723
7.5276641155920210 0.0000763286745574 7.6634599217612633
6.2729648444353598 2.1731295096000549 7.6838440553103826
5.0183614509243943 4.3459805609838851 7.7128124022104219
3.7637494512646192 6.5186902412049799 7.7065676554196605
2.5086724222082957 8.6919658465937086 7.6856801228071046
1.2547282582790578 10.8647743386498945 7.6736993444322170
10.0369226129155216 0.0001061132046185 7.6938608980416685
8.7821287172648095 2.1731573586659070 7.7014365758513676
7.5274647204057636 4.3460257442377843 7.7042425468938323
6.2728464827848676 6.5188529032376374 7.6896555284470010
5.0184901073652783 8.6916950655647387 7.6678828112683535
3.7637484602687086 10.8644340028281867 7.6805984996007490
5.0182904615219979 13.0376532475987990 7.7134922386251850
11.2913308908204151 2.1729609589119185 7.7127986168948377
10.0367937536839751 4.3458868568194573 7.6915853828238063
8.7822766376947694 6.5188036909212759 7.6724998201905041
7.5276223214952225 8.6918319268713713 7.6635108449010341
6.2727934319961811 10.8647861774575940 7.6832270506776874
2.5093554395881834 8.6917375795726759 1.0044878951138176
3.7030400320100725 8.0025743825053457 1.0068729266325880
