rBN 3-layer slab
1.0
15.0551462173000008 0.0000000000000000 0.0000000000000000
-7.5275736112000002 13.0376828894999992 0.0000000000000000
0.0000000000000000 0.0000169606000000 10.0278787613000002
B N C
107 107 2
Cartesian
1.2519381636073152 2.1687395687060578 1.0211638513376173
0.0020925160983165 4.3513536667163191 1.0308909285001908
-1.2500567126950151 6.5212930605433952 0.9892951638017605
-2.5035632334621107 8.6926811163270763 0.9722298307397792
-3.7643211867159105 10.8648664230311898 0.9958330583732694
-5.0179342823186008 13.0372841656527694 1.0023165886438083
3.7641331285171615 2.1696181882109440 0.9950778065805204
2.5024137750689275 4.3283961192163138 1.0132572304184755
1.2716073703628412 6.5227117028907866 1.0090069062624556
0.0037336054767676 8.7046960480906481 0.9857776713830497
-1.2611629288219037 10.8685703958202797 1.0014963509274841
5.0178451044905232 0.0004763228885967 1.0064638546272464
6.2753086584961064 2.1697745195706926 0.9884208612682677
5.0190500538074616 4.3425195519290076 0.9718135821822695
3.7431465668012702 6.4965658695961634 0.9958241120270499
1.2451972956292550 10.8550936968859215 1.0184533690887552
0.0020810683541288 13.0325373190859661 1.0301073482502470
8.7833538056637561 2.1712392192054493 1.0090449844108782
7.5265526754294001 4.3468103093771102 0.9851348131870593
6.2635276256006236 6.5241241536055679 1.0020231916253342
5.0272080038124018 8.7210228276181585 1.0088971851959561
3.7688363887265552 10.8482811402015482 0.9954064780500614
2.5095962637275528 13.0327395734831697 1.0133720882845547
11.2909866995370667 2.1717584177898681 0.9968716176867828
10.0371751364689992 4.3455955281685279 1.0022296763155512
8.7805658509477595 6.5189221540555700 1.0198867025915579
7.5306447915998085 8.6928524364648236 1.0308419579613084
6.2846649400475956 10.8795312767110524 0.9893728263259005
5.0148443108852740 13.0332810622035709 0.9720576748856371
13.7989737372571142 2.1738957003902284 1.0016756016485671
-2.5083397910775029 4.3471744905613896 1.0054123073204189
-3.7618545829137697 6.5188290795235231 0.9941869699343946
-5.0144697204453106 8.6911984126087916 1.0140350605985686
-6.2698246253157714 10.8659030502567919 1.0080906039944106
0.0023138786061760 0.0042407872026861 0.9838539716663021
0.0000337538838070 1.4487400627143925 4.3418687821143811
-1.2545012306722887 3.6213207479610032 4.3031696637752654
-2.5091675681282037 5.7941359833471724 4.3342434929875120
-3.7641496556209324 7.9672703515868930 4.3654012610677970
-5.0191072696256054 10.1403767674690570 4.3553725817395037
-6.2733632941623823 12.3135160197193088 4.3630211145383582
2.5092437827794614 1.4488931538311876 4.3247743246988994
1.2547096133902260 3.6216043008554717 4.2931824449992702
0.0001182580221085 5.7940445420778879 4.3219270958598504
-1.2546688288051904 7.9671900368509920 4.3927486151169157
-2.5096392880298541 10.1404259247200876 4.3859348680067809
-3.7641549439215845 12.3135101639157423 4.3469710694862638
5.0183337063146514 1.4489719318997039 4.3347357681865377
3.7638113233699135 3.6222143945477603 4.3652225801297027
2.5092892672880236 5.7949482921479891 4.3556175293011696
1.2556317772938441 7.9667607973129497 4.3637369833519664
0.0003414295922669 10.1403304664246079 4.3424192129806229
-1.2547088824524171 12.3135004479234702 4.3035917732867173
7.5274262313528553 1.4490146578332761 4.3220667477975745
6.2727681238701134 3.6223103080029149 4.3920773815621388
5.0181240698130756 5.7954380649733350 4.3844403226831146
3.7639603190184996 7.9672359205717429 4.3399160188366084
2.5106386532351483 10.1398651673404689 4.3263668631086052
1.2549258118540685 12.3135192743375921 4.2932357591429779
10.0367279758517256 1.4488730785554700 4.3562605083502417
8.7819476071295632 3.6220071285802429 4.3633633389476865
7.5272487473646024 5.7948991352264230 4.3414093289287781
6.2722558083620967 7.9671106016901465 4.3023807150478444
5.0183202664362287 10.1398086536808858 4.3351795094213843
3.7643039595060830 12.3133746865651297 4.3658320791470153
12.5459751478181136 1.4486779368458498 4.3857584606554632
11.2913050429973456 3.6215335349113880 4.3469772368543831
10.0366615012371625 5.7945083491598055 4.3244707407222904
8.7816481273805564 7.9672956510437878 4.2923563043793029
7.5269262433050148 10.1401014577103705 4.3211847593827031
6.2728903271279277 12.3133494366235805 4.3921848008738875
1.2544767670371895 0.7243794795297995 7.6871033530534163
0.0000349560717391 2.8973287217378259 7.7046323134471342
-1.2545989120675241 5.0699965497582928 7.7077465205536102
-2.5094722753447272 7.2428763245166063 7.6836317425502703
-3.7642108509035577 9.4159886700092077 7.6658177060021258
-5.0186998634779281 11.5890145879811346 7.6721711303977935
3.7634967880904644 0.7247309425195926 7.6979969422796533
2.5091611557300708 2.8977381586732047 7.6958785008600845
1.2550687751061822 5.0703881449228652 7.6914306735369449
0.0004567202444501 7.2425945362150852 7.6779499174017021
-1.2546305978142105 9.4158880752590033 7.6708071529109354
-2.5094991532949917 11.5892570371325405 7.6853155134729505
6.2727559012859126 0.7247606228731983 7.7078098229433563
5.0182666103966005 2.8979230933592457 7.6834929041295963
3.7641519422203924 5.0711720751837763 7.6655387954935295
2.5107247101505257 7.2436531033071816 7.6722733232920310
1.2558751169671720 9.4153824389296581 7.6842922463554135
-0.0000026269743583 11.5892237326794572 7.7050857183114712
8.7822662232159843 0.7245910104880771 7.6909519189524387
7.5275166943837348 2.8976197869774269 7.6782173696586025
6.2727725076952474 5.0707330339395931 7.6717269811202655
5.0179925210794085 7.2434302330412805 7.6861662358652740
3.7639747055143826 9.4146874274040009 7.6981178966967487
2.5096603119952254 11.5890399141107849 7.6969396539345185
11.2916421927798076 0.7243659606326838 7.6654598329008801
10.0368172904725625 2.8974042062916090 7.6715701297925474
8.7818167267574729 5.0703587154304230 7.6870581532208089
7.5268045054518957 7.2430962887373305 7.7052336830148267
6.2722321713053404 9.4153689831277543 7.7066500988267146
5.0184241996656791 11.5885956024440819 7.6850597406980210
13.8006573296153157 0.7241534683208284 7.6714056718944095
12.5460140806890461 2.8972632396410676 7.6855034132795446
11.2910695803351988 5.0701981280800483 7.6986933798542454
10.0361143249245224 7.2430710940644154 7.6970469951348486
8.7815247582146352 9.4158015450855981 7.6914684750134121
7.5273668382905337 11.5886913568770087 7.6793289721925007
-0.0019464146256210 1.4496411177352193 1.0053347752131752
-1.2535924756573869 3.6251416354176782 1.0247746756052065
-2.5048306910169140 5.7970163294653947 0.9938937235737357
-3.7568431079235673 7.9678700321165872 0.9890600019663603
-5.0155675085237279 10.1403540383064250 1.0125056917919233
-6.2718400554905740 12.3147751574295921 0.9970145406797982
2.5083709246351038 1.4467936753668387 1.0131961111529992
1.2480195859072982 3.6145022876895343 1.0424105919403537
0.0078641598343428 5.8079111177283069 1.0189571992828357
-1.2415361135564800 7.9708795280859208 0.9691223601369094
-2.5087827240810401 10.1403415096378762 0.9813698556675704
-3.7629157164489699 12.3127504597914239 1.0039703009862759
5.0196580424362010 1.4463054433864468 0.9946334508446797
3.7624183113842946 3.6148454818727251 0.9885664344493398
2.4954430950716340 5.7705580281366897 1.0101878370496500
1.2828099311400398 8.0014955796578953 1.0005364454306434
-0.0059846124670948 10.1438273342405143 1.0048660108886263
-1.2543871184353137 12.3131222029630401 1.0260350286871458
7.5308027885335154 1.4426442919999301 1.0184050530615514
6.2748767726263317 3.6165650045565987 0.9666823837851735
5.0133723205999514 5.7858004321056953 0.9827163134750890
2.4937738203156994 10.0989494561501818 1.0102699871787233
1.2583593958549077 12.3005791580069861 1.0388436945714652
10.0371472081161492 1.4438385543711203 1.0134684592216954
8.7828685332384637 3.6201390859873408 0.9989653071089718
7.5242676444989236 5.7961273026591256 1.0053969766230519
6.2778191723968613 7.9760274129123658 1.0249259529324806
5.0321886276910970 10.1645661634708997 0.9977678584860489
3.7563250796909990 12.3001508770312853 0.9893016056947437
12.5434694322241072 1.4460410754722310 0.9826296299857081
11.2923495436433132 3.6210789462604613 1.0039005261953662
10.0382318220646631 5.7945684445288448 1.0111144035072135
8.7872743012300276 7.9681477470209101 1.0417434912424048
7.5327120088192734 10.1450232003209475 1.0188126647047004
6.2758341187239441 12.3227836329619187 0.9661284804355365
1.2545672469220823 0.7244634762172782 4.3449128995474098
-0.0000690822864921 2.8972076215909413 4.2887045930925076
-1.2546871005268130 5.0700328609495156 4.3012474496243494
-2.5091089137402669 7.2430946160387526 4.3829461367953204
-3.7638788489336963 9.4160982235610451 4.3919852790042686
-5.0185542391887878 11.5891622611839065 4.3669957903003249
3.7638544810642340 0.7243058263722327 4.3305073600182551
2.5092182826964518 2.8972827181294498 4.3163182386243140
1.2542635233921851 5.0700940698400823 4.3091962559442223
-0.0001765484285213 7.2431590619617845 4.3733537162938969
-1.2545918693670404 9.4161147921816379 4.4001823878315269
-2.5092516208740041 11.5889800714174758 4.3485026056865470
6.2729915188911667 0.7242364388917107 4.3019854320983395
5.0183836106563957 2.8973008888863196 4.3833124268717407
3.7635468863227675 5.0702742072362055 4.3919150312115338
2.5084627448135781 7.2428626599674963 4.3675512035548225
1.2547129839135345 9.4160753095995027 4.3427125388022860
0.0000997195310056 11.5889549554443541 4.2879429450746489
8.7821345494044891 0.7243157688734713 4.3085073733665711
7.5274849594785342 2.8973524757618372 4.3743198030939068
6.2729086591291185 5.0703105364451613 4.4000001548535739
5.0184451442497826 7.2431023742269458 4.3499966824111000
3.7638497443334384 9.4168556374673518 4.3333336757949157
2.5093728152110022 11.5891508999047836 4.3158267359263229
11.2913188240055575 0.7244508089221428 4.3926457065101845
10.0367193117469835 2.8973104343942153 4.3676481932440909
8.7822973322868538 5.0702675152893120 4.3450106327956073
7.5276435698389337 7.2431803744709127 4.2889739418199708
6.2728575746178121 9.4162248437960105 4.3016902201328184
5.0184057393840522 11.5892931561189627 4.3829859354899687
13.8004599153955549 0.7244630029701129 4.3998875061809795
12.5458961175635864 2.8971986889905117 4.3485368410749095
11.2915269013440263 5.0700923158624738 4.3300134127667915
10.0369467481108181 7.2431276326237546 4.3160072950822350
8.7820399853000737 9.4161872501845050 4.3081070943926907
7.5273889947499484 11.5892650118469120 4.3737446423215127
7.5276142344517254 13.0376460825216665 7.6758529281741525
-1.2545345081583448 2.1730646581116022 7.6902041247583650
12.5459406284836081 4.3459413614452540 7.7089158502160329
11.2911669592252082 6.5188147044026250 7.7011741920211376
10.0366110016265004 8.6917423989616083 7.6854890342374924
8.7821612626882892 10.8646268282355809 7.6784917872406773
2.5091439525974044 0.0000785981936386 7.6875338109317530
1.2544626037612507 2.1731211544803246 7.7059523494499871
-0.0000091521609852 4.3460025676396485 7.7154559552150657
-1.2545989604003815 6.5186786435378652 7.6954033407655951
-2.5091853888656033 8.6917076193249319 7.6657299789992450
-3.7637554133918805 10.8647648525131206 7.6667131426617807
5.0183408955547462 0.0000942195590488 7.7084947017989043
3.7635743264356933 2.1730362649082542 7.6997715084488370
2.5090670060792846 4.3460645829920121 7.6846183684422584
1.2548436460396204 6.5190452286028400 7.6797018291665680
0.0000630203834386 8.6916754926886419 7.6757618934369267
-1.2545348720648557 10.8648253750544317 7.6904977673839188
7.5275540454286620 0.0000048891349795 7.7162374940652887
6.2729840848253398 2.1728413258028541 7.6951763151927661
5.0183897589716286 4.3458700229380449 7.6653367695960872
3.7639314232023793 6.5188176671150417 7.6641573826410800
2.5087857537830871 8.6921780507045003 7.6813710083692541
1.2545331619383155 10.8648525108365632 7.7078663338146747
10.0366933682770423 0.0000157737425148 7.6851169023608197
8.7822690929179270 2.1728329822828836 7.6775546293404382
7.5276749557609790 4.3458454570973641 7.6746587427204442
6.2729219002123049 6.5189719762975402 7.6904102387525741
5.0185081707847212 8.6919317052303686 7.7028437834572250
3.7634658966198189 10.8645201513117762 7.7033377716680969
5.0183358823952933 13.0375901610792990 7.6659961433434196
11.2914625944523443 2.1729948234237293 7.6663817227944309
10.0367881618110797 4.3459068755790851 7.6874463211377808
8.7820160444642372 6.5188968328112082 7.7064006893344779
7.5274967344832540 8.6917794347898809 7.7146451761135717
6.2728512370120235 10.8646028849279599 7.6963488217053895
2.5093158784932998 8.6916696246033087 1.0055698246354441
3.7030121803639258 8.0025325356500314 1.0069885880413856
