rBN 3-layer slab
1.0
15.0551462173000008 0.0000000000000000 0.0000000000000000
-7.5275736112000002 13.0376828894999992 0.0000000000000000
0.0000000000000000 0.0000169606000000 10.0278787613000002
B N C
107 107 2
Cartesian
1.2519585563639950 2.1687527725846678 1.0146753330908649
0.0020844163924647 4.3513213347863298 1.0211871665298695
-1.2500670475994986 6.5212380485749790 0.9933817160329387
-2.5035863353557919 8.6926595467431955 0.9819484158638829
-3.7643470174758495 10.8648815285303062 0.9977670256982151
-5.0179165432975763 13.0373191442566707 1.0021017577257421
3.7641667740410121 2.1696199152528712 0.9972826097544741
2.5023800658226336 4.3283909774562224 1.0093914703419253
1.2715681364239182 6.5227090653193383 1.0067407156379713
0.0037199822821448 8.7047044513562124 0.9909570581690755
-1.2611698758900960 10.8685587533893706 1.0014540291212179
5.0178704474391056 0.0004627957091608 1.0048542608241531
6.2753296906093334 2.1697882886981539 0.9928281407075000
5.0190396805837363 4.3425480960340366 0.9817646237354227
3.7431025606317108 6.4965650016696852 0.9980883108235800
1.2452089565437277 10.8550861311645512 1.0127410319756018
0.0020732641747039 13.0325088733890269 1.0205334170270834
8.7833173785794258 2.1712469382096056 1.0065654039543057
7.5265757791335064 4.3468826315515647 0.9906815478901670
6.2635527494379062 6.5241663572386557 1.0019693329772141
5.0272328635791519 8.7209844268222270 1.0068037144087330
3.7688524478930767 10.8482443194419602 0.9976743029016917
2.5095513645487113 13.0327037453724408 1.0094339565093049
11.2909345428789756 2.1717258992703319 0.9984728507313123
10.0371826557552595 4.3456108484842639 1.0020432218621929
8.7806137414687413 6.5189796335289101 1.0138495322932803
7.5306754863030028 8.6928605091835092 1.0211170478424365
6.2846767493901181 10.8795012918751635 0.9934688496274747
5.0148187664408228 13.0332560914727331 0.9819656258027185
13.7989677476620329 2.1738853437918255 1.0016892954374546
-2.5083411790111225 4.3471134454797546 1.0041666522819037
-3.7618334552100396 6.5188020475054413 0.9966598489160403
-5.0144719722590523 8.6912242603915661 1.0099041202023737
-6.2698429926068915 10.8659368706930284 1.0059576127650418
0.0023117239933659 0.0042679221676800 0.9898028205157975
0.0000193788187521 1.4487064796124836 4.3426181369604802
-1.2545218050913958 3.6213561333615325 4.3168204800875385
-2.5092092623546591 5.7941872675237480 4.3375318288224225
-3.7641542159778161 7.9672965694355371 4.3582927212520319
-5.0190392199549709 10.1403632199267619 4.3515741533708718
-6.2733302946059712 12.3134594485124627 4.3566531776125981
2.5091848980059615 1.4488929856417947 4.3311552706340581
1.2546882002834345 3.6216123647365497 4.3101672623624196
0.0001401788548951 5.7940465621959696 4.3293560846771006
-1.2546487023704376 7.9671769306157811 4.3766406871939711
-2.5095913747850767 10.1404317984657943 4.3720656905867310
-3.7641443766722169 12.3135276680448396 4.3459797878046462
5.0182876791016051 1.4490235377967058 4.3378164839267788
3.7638019717613029 3.6222317186980009 4.3580080253848248
2.5093557158784034 5.7949389696944600 4.3518197114293784
1.2556606012332119 7.9667141186393025 4.3575186047655876
0.0003293576943368 10.1403019219711954 4.3431502535351285
-1.2547282399821114 12.3135409619709790 4.3171705506379352
7.5274489055768363 1.4490174943369174 4.3294032327397840
6.2727869077340790 3.6222781792401038 4.3759664996183814
5.0181606121830384 5.7954231864453645 4.3706176212285417
3.7639785141916899 7.9672715863435437 4.3388923773476300
2.5105887655578556 10.1398683959768157 4.3326050511588665
1.2549069533750403 12.3135274096406544 4.3102986484499253
10.0367933458915672 1.4488620247804844 4.3522105652738325
8.7819805723300899 3.6219497413777932 4.3568836852661832
7.5272249017107100 5.7948514468107977 4.3421556423714920
6.2722218640910574 7.9671306762920251 4.3159112044036014
5.0182773597434922 10.1398620201736041 4.3381942441932475
3.7642995315452019 12.3133999272667154 4.3586256329507780
12.5460196782763624 1.4486797383808299 4.3718800480040727
11.2913169599387366 3.6215528109260098 4.3459966584136351
10.0366015877317469 5.7945076531138637 4.3309551668965636
8.7816131452836732 7.9672940049406149 4.3094856648308664
7.5269434185096733 10.1400949258132460 4.3286495165054477
6.2729138254026999 12.3133338735468794 4.3761688298520722
1.2544770733919786 0.7243834765344791 7.6870389832158654
0.0000612392344148 2.8973195913459233 7.6987087113016948
-1.2545789156264637 5.0699910248928077 7.7007252891127713
-2.5094553258127301 7.2428865076735933 7.6846089989630668
-3.7642223773861470 9.4160019650945337 7.6728157646485124
-5.0187286709780361 11.5890297422591129 7.6770608727698608
3.7635257744887776 0.7247112830202630 7.6942780306583041
2.5092015322790395 2.8977181808374044 7.6928934509879419
1.2550614641226820 5.0703930115655478 7.6901953892192063
0.0004235474848615 7.2426255562320296 7.6809249274497207
-1.2546517972227025 9.4159124924704969 7.6761588135808525
-2.5095027527980136 11.5892520645432722 7.6857832531629544
6.2727775274452666 0.7247609435360820 7.7008107715342158
5.0182778175741554 2.8979309269853997 7.6846253528106230
3.7641363991194026 5.0711795138128979 7.6724258373189569
2.5106930009124810 7.2436642516664920 7.6771867930350002
1.2558715730038787 9.4153814007315582 7.6843008898923353
0.0000254562233160 11.5892220685500487 7.6990109381339566
8.7822701129773169 0.7246112653687063 7.6894889936796629
7.5274874221647492 2.8976641790142743 7.6811118346323060
6.2727514182869353 5.0707632402059986 7.6769816228945178
5.0179875493833652 7.2434197162845093 7.6866225859869282
3.7640009296441019 9.4146603275277094 7.6944163409065292
2.5097012103717597 11.5890230053440515 7.6935846055291659
11.2916264686305041 0.7243750969215478 7.6725345430587009
10.0367888137238861 2.8974247943286282 7.6766601518280275
8.7818249439598368 5.0703746833362304 7.6870401883413795
7.5268409040036577 7.2430957037532355 7.6993200228961474
6.2722517364135673 9.4153617361249449 7.6998342733056271
5.0184326929161207 11.5885884053955426 7.6859493916241339
13.8006321474793925 0.7241723275088232 7.6765579974978406
12.5460103099324538 2.8972566670197981 7.6859601613820629
11.2911043774840358 5.0701814909586673 7.6947423592251782
10.0361672234755943 7.2430634606014745 7.6936647223386005
8.7815304097871643 9.4158158067358055 7.6899427384364945
7.5273329726779403 11.5887198904716655 7.6818608203582892
-0.0019304197227404 1.4496717545445872 1.0049812167537566
-1.2535897374015401 3.6251248765937518 1.0179375767777219
-2.5048324963729600 5.7969489509608811 0.9973070844365739
-3.7568673398774091 7.9678388751141389 0.9940688007087924
-5.0155958886335972 10.1403760529202653 1.0097396340805349
-6.2718351167293092 12.3148156247674976 0.9994141387345549
2.5083971776257052 1.4468217240709311 1.0102019482839142
1.2479942657836176 3.6144862629385486 1.0296674867934317
0.0078423587663374 5.8078611364114101 1.0141087265599615
-1.2415520628490571 7.9708367369859543 0.9806629771901354
-2.5087961367973266 10.1403455646677152 0.9889454094705094
-3.7628990505441799 12.3127811245627719 1.0040426103547038
5.0196898419415357 1.4462963763737902 0.9978249390674747
3.7624100493764390 3.6148442258999225 0.9937750874369350
2.4954004359925612 5.7705475903131394 1.0082593798225028
1.2828115248961625 8.0015090353543741 1.0019277376693292
-0.0059775706625088 10.1438409377674628 1.0044998554019076
-1.2543741815317915 12.3131123100734925 1.0187220499568170
7.5307855492004308 1.4426098922404180 1.0136327214497862
6.2748885450157319 3.6166099967486107 0.9791946915958339
5.0133781184694204 5.7858428334669103 0.9898442195847875
2.4937822205539861 10.0989545664285956 1.0084172144355685
1.2583282538598841 12.3005439734774988 1.0271440229429096
10.0370865510348892 1.4438020287368247 1.0103570160299009
8.7828662757913971 3.6201667827519506 1.0007125828677621
7.5243118987021518 5.7962062210621497 1.0050629835680158
6.2778571124762976 7.9760535374958135 1.0179842789240698
5.0322026288294284 10.1645252017506973 0.9999794086833592
3.7562897867417697 12.3001055103011812 0.9943388501939467
12.5434553459448850 1.4460320058036771 0.9898397176728301
11.2923402337655006 3.6210630004548690 1.0040149363931297
10.0382521955336017 5.7945837824624418 1.0088119961394693
8.7873050523988656 7.9681810589113899 1.0292356371303506
7.5327134171561640 10.1450172889469439 1.0139393642663039
6.2758311924904593 12.3227552356835606 0.9788133445146028
1.2545533421108770 0.7244318807404790 4.3453698978224340
-0.0000827632671078 2.8972182628392491 4.3079262393238080
-1.2546942101721439 5.0700583567487509 4.3162492989123624
-2.5091224873174767 7.2431145089774942 4.3706692126785693
-3.7638478239405315 9.4161085215426912 4.3767513314736890
-5.0185159009141165 11.5891377964085187 4.3600849910164143
3.7638149967280916 0.7243253270432308 4.3357594080102242
2.5091720658831398 2.8972911194419004 4.3262691612693134
1.2542878916537725 5.0700900177458150 4.3216204497396866
-0.0001445531816363 7.2431247708366850 4.3641451694144795
-1.2545661177188931 9.4161096506984876 4.3821371507333442
-2.5092342440476716 11.5890096518719741 4.3477213499904899
6.2729832681404849 0.7242647661381389 4.3167518327554744
5.0183638170215472 2.8973097572994422 4.3709612105400160
3.7635621735449192 5.0702756517732261 4.3766275056192683
2.5084815125797344 7.2428426372295460 4.3610094422780517
1.2547095508492823 9.4160670135668951 4.3431905532284718
0.0000850810450265 11.5889707404891116 4.3073110026129635
8.7821577314930543 0.7243105659017661 4.3210434019260138
7.5275219584891691 2.8973150890138708 4.3649867148365651
6.2729262053153816 5.0702849252935138 4.3821828992434471
5.0184488159997196 7.2431104792976031 4.3491932896502945
3.7638224231368520 9.4168647776742045 4.3381974278734994
2.5093311131976934 11.5891639017617987 4.3257936273095288
11.2913474312769413 0.7244607381787758 4.3771815344334888
10.0367605505184816 2.8972903310033566 4.3605370718932814
8.7822827246154862 5.0702358842945277 4.3454705100744881
7.5276140040865736 7.2431792467592073 4.3081653716514161
6.2728489504202471 9.4162354995081134 4.3164775781460882
5.0183948629007551 11.5893150202367963 4.3708134161274534
13.8004823935788803 0.7244559940159584 4.3820482012838067
12.5459128273181388 2.8972262743255897 4.3478019009546429
11.2914907947249716 5.0701173028236584 4.3354468213948660
10.0368997984380339 7.2431406070149356 4.3261113944685441
8.7820580192386775 9.4161716632568560 4.3208242815396716
7.5274222942651363 11.5892246769992688 4.3645535191328033
7.5275731340916048 13.0376621893570075 7.6804536877958176
-1.2545563784688976 2.1730326660621309 7.6900129249103486
12.5459481393015526 4.3459191900491971 7.7024739047482802
11.2912274251215869 6.5188158776025471 7.6972812933295884
10.0366557426699643 8.6917610461434212 7.6868291390815466
8.7821375907413088 10.8646736752390840 7.6821324588462723
2.5091406031957337 0.0000695119461187 7.6882172100698583
1.2544952651727863 2.1730940608468554 7.7005198567995210
0.0000050194480357 4.3460056116810541 7.7068845882745300
-1.2546027583278725 6.5187193612068608 7.6934319164041716
-2.5091879627299183 8.6917265689444374 7.6737696089103204
-3.7637750823121219 10.8647621865252919 7.6743287611229380
5.0183491864223635 0.0000761710709894 7.7021832970668367
3.7636283241271764 2.1730329193488185 7.6963185732547625
2.5090993243033597 4.3460687661810162 7.6863409563913336
1.2548110048505297 6.5190812055484795 7.6837903199933075
0.0000303947150063 8.6916989401454554 7.6807693343339407
-1.2545532760534592 10.8648004494693886 7.6903401393678941
7.5275723904558891 0.0000167957249092 7.7074412320146175
6.2729808780936764 2.1728893564357206 7.6932876052123689
5.0183850409637563 4.3458884459456852 7.6732493750318094
3.7639010945460858 6.5187964294633645 7.6712257614375101
2.5087668651872885 8.6921426833527011 7.6820891941088956
1.2545656779951060 10.8648394821387857 7.7021718355842648
10.0367315757167894 0.0000308303195321 7.6865742349742945
8.7822456969757408 2.1728870450133875 7.6815349537589261
7.5276399165351098 4.3458755049541011 7.6795893767493428
6.2729093306410650 6.5189521307875564 7.6902844537016453
5.0185051602148141 8.6918922652860964 7.6970169547590794
3.7635129905613005 10.8645057932311779 7.6995478929902053
5.0183283122497437 13.0376006754992151 7.6739121592237138
11.2914406438470234 2.1729891793384275 7.6741178718111653
10.0367890937898956 4.3459035391191474 7.6881361647521187
8.7820594766693265 6.5188813091628859 7.7007505444771489
7.5275176656519154 8.6917881834701305 7.7061227875781491
6.2728416028427167 10.8646334336828989 7.6941618598674388
2.5093224720091141 8.6916809504315360 1.0053895030485063
3.7030168223049502 8.0025395101259171 1.0069693111399194
