rBN 3-layer slab
1.0
15.0551462173000008 0.0000000000000000 0.0000000000000000
-7.5275736112000002 13.0376828894999992 0.0000000000000000
0.0000000000000000 0.0000169606000000 10.0278787613000002
B N C
107 107 2
Cartesian
1.2518438188509167 2.1690095384767361 1.0108648488471523
0.0017885506263026 4.3512654928297625 1.0189922659060737
-1.2501796647762486 6.5210516918819117 1.0346772146475645
-2.5034796510940822 8.6925860588381436 0.9858712468711457
-3.7641449230439967 10.8650687300251665 0.9633030065401719
-5.0176648247836289 13.0377558796392670 1.0020075971243629
3.7641956457801378 2.1700309730483021 1.0314998731044187
2.5021622095055940 4.3285515450278069 0.9678073535550904
1.2715154116617555 6.5227468920125276 0.9750241587729274
0.0038260669454453 8.7046650092590845 0.9982618699619302
-1.2611883087385465 10.8685319335895336 1.0015364198460941
5.0179398917006122 0.0007414313656648 1.0411208366693046
6.2755704578118472 2.1700177097061890 1.0325360788465849
5.0191187606568306 4.3426213859513929 0.9828698432296513
3.7429844316471179 6.4965510732851062 0.9615780289085990
1.2451150546873584 10.8551584823003626 1.0036370106041779
0.0019650297622486 13.0325720822058653 1.0165996534492732
8.7835175404038317 2.1712732341482712 0.9736336199434723
7.5269057472415515 4.3470948978549080 0.9944484758357205
6.2635595162112141 6.5241772778795903 1.0021037629321792
5.0272841937128359 8.7208736629973291 1.0449622850130609
3.7689110798899725 10.8482086211096007 1.0292298561370881
2.5094495941258965 13.0325107315897313 0.9680332696506058
11.2908678103811457 2.1714414045762971 0.9653064860924407
10.0372961166340708 4.3458080172414366 1.0019347286458933
8.7806247706698759 6.5193712361556457 1.0083873873759372
7.5307026787990212 8.6929696470343547 1.0202043882332754
6.2849280868135802 10.8793921976177046 1.0350314662948592
5.0149200394307965 13.0329609978648868 0.9842814643228550
13.7988194260007031 2.1736200560803529 1.0018676657118140
-2.5085446012555885 4.3469072095468064 1.0391817895387163
-3.7619142613409893 6.5189798241424137 1.0293546556521462
-5.0143985247900513 8.6915362448693649 0.9702131547971317
-6.2695038022988889 10.8661723374978152 0.9717276918000709
0.0025899661432942 0.0042992336376294 0.9918644110141014
-0.0000351021080007 1.4485936737727538 4.3441523872559316
-1.2545533173619918 3.6213622686487250 4.3312962964760846
-2.5093005805513635 5.7942278198467454 4.3248158034691295
-3.7642048836232260 7.9672939423446074 4.3488695994462248
-5.0189747780789844 10.1402550096826634 4.3629442480797094
-6.2733322418437520 12.3132801988340628 4.3515837094608996
2.5090444077931533 1.4488013542522811 4.3363030240988580
1.2546971184217517 3.6215886719771433 4.3427088384682708
0.0002196055227607 5.7940329386472209 4.3395470367224931
-1.2546248812466554 7.9671145986314515 4.3467606016900699
-2.5095618309935013 10.1403823325853875 4.3573605987344584
-3.7641873008712263 12.3134511981406138 4.3439069034881159
5.0181629558979326 1.4490246997525809 4.3249668871171103
3.7637543946304191 3.6222171603309183 4.3486333334865588
2.5095118757696802 5.7948898598198921 4.3628011621435139
1.2557056115971523 7.9665560507619411 4.3528453958064839
0.0002804454408414 10.1401982444119643 4.3446421639355766
-1.2547839815162636 12.3135325659061667 4.3311798793671192
7.5274683449478736 1.4489587820489158 4.3393304967792270
6.2727640023914590 3.6221779124779094 4.3456574301064208
5.0181734733085959 5.7953560978978533 4.3556477525720352
3.7639366026501757 7.9672074006270206 4.3367443435506026
2.5104409211554386 10.1398303504781993 4.3373709161792879
1.2548477985889230 12.3135096093716569 4.3421642088083985
10.0368729805539569 1.4488009805516757 4.3633640542450021
8.7819883467332911 3.6217638365202145 4.3523146940708095
7.5271499107883191 5.7947062427719596 4.3436805831337884
6.2721539334287373 7.9670991407200056 4.3301572024488681
5.0181543116047758 10.1399746201643115 4.3255937922639953
3.7642585191877864 12.3134722757141990 4.3489144288712609
12.5460480712419571 1.4486592974016144 4.3568368120038716
11.2912865543963363 3.6214975466980377 4.3439474824910080
10.0364503060989936 5.7944204168705946 4.3355929192030427
8.7815434941313448 7.9672187539219594 4.3419100938360238
7.5269500959157076 10.1400318035051384 4.3385518216830876
6.2729015182195011 12.3133279277894339 4.3456359462904661
1.2544460237865944 0.7243410436510843 7.6871118208613352
0.0002039603850713 2.8973384353680949 7.6790876836931927
-1.2545206556880484 5.0700287483292943 7.6468762276374234
-2.5094496999214302 7.2429061031177469 7.6640935864270077
-3.7642501260418180 9.4160668976703459 7.7265423740466135
-5.0188486073763805 11.5890764888138822 7.7173851423789328
3.7636230017852763 0.7246254507512943 7.6555187331884396
2.5093437811760078 2.8975396857811879 7.6880289328321378
1.2550080027736243 5.0703853884223733 7.7113060421097153
0.0001912662052623 7.2427026525145566 7.6893166106322690
-1.2547258054639217 9.4160709540866119 7.6972834101706216
-2.5094409906992259 11.5893674198841090 7.6860510108336335
6.2728458426244966 0.7247746995199593 7.6469080479582621
5.0182774960803664 2.8978873160183056 7.6655848640394524
3.7640918052910610 5.0711715325860025 7.7239880098395997
2.5105671148459510 7.2436619876518460 7.7169391250477419
1.2558199269511194 9.4153004322255089 7.6845081319397304
0.0001869908260602 11.5892437426234860 7.6767342370728144
8.7822830210268208 0.7246218723595765 7.7095020463487414
7.5273064457762162 2.8977578541143707 7.6898109309460994
6.2726764282286629 5.0708927677943256 7.6967505846881465
5.0180100566055499 7.2434460320859264 7.6868501624715746
3.7640665616170299 9.4145340694045974 7.6562750943065803
2.5098761159199978 11.5888487306190289 7.6850996067520896
11.2916194106827259 0.7244367945959342 7.7263115148514432
10.0366915486837218 2.8974937711371389 7.7193654286509785
8.7818249678851945 5.0703783489075116 7.6872123702698412
7.5269906691602788 7.2431012186435257 7.6786024105805248
6.2722716061483839 9.4153221152420539 7.6481937809790743
5.0184469940064638 11.5885303475045092 7.6646102808682519
13.8005623933776214 0.7243094935291520 7.6949793238348398
12.5460757345112288 2.8973791772456874 7.6862042717920867
11.2912138217707199 5.0701344728041535 7.6534890435636669
10.0363377292407350 7.2429530376310538 7.6846920670895598
8.7814960754971736 9.4158013408289118 7.7087031984581191
7.5271113177033264 11.5887625645124164 7.6864768026663679
-0.0018983065466989 1.4497272641774692 1.0039579470045863
-1.2538204330395748 3.6249762575710345 1.0370663002026153
-2.5050485169335008 5.7967722498947900 1.0634042505667907
-3.7568419499944450 7.9678607693006542 0.9923274714107089
-5.0153404225688805 10.1406320563339456 0.9426785733903214
-6.2714906259717473 12.3151134551230079 0.9789747227391408
2.5084770416421871 1.4472704154520841 1.0293566317606797
1.2476931479979783 3.6146078589640651 1.0016947844450579
0.0076230845352026 5.8077384273403725 1.0181370790102340
-1.2414873499730914 7.9706060144031987 1.0116086120886914
-2.5086539358063753 10.1403398044907433 0.9707554889794199
-3.7626691398809053 12.3131721975483881 1.0051122438009688
5.0197891329176496 1.4466623502862275 1.0660174119199990
3.7623668250553792 3.6150257652532751 0.9900752702485224
2.4952502478706284 5.7706123905207241 0.9384949724060484
1.2828890116920355 8.0015977479746816 0.9904551496553281
-0.0059676339000393 10.1438660319601812 1.0034232566171741
-1.2544403759497573 12.3132369474697150 1.0381687746852284
7.5307984234622314 1.4426483868266919 1.0152090018004445
6.2751201595366384 3.6167882831741291 1.0075788974198130
5.0134207645388225 5.7859138711400782 0.9685634343408109
2.4938158012710554 10.0990547683110936 1.0187014438094404
1.2580981556235407 12.3004840334162253 0.9950457541912481
10.0370466228326336 1.4435236044306043 0.9451878487219180
8.7830847170278865 3.6203098033401906 0.9831424737721016
7.5244559595287326 5.7964638217481124 1.0041084418245343
6.2778998370207084 7.9761244261848709 1.0405196783355595
5.0323393884379621 10.1644242872098118 1.0706270542197909
3.7562928099241990 12.2998454488332687 0.9902076174589760
12.5434521602173703 1.4457476328903025 0.9721535193433898
11.2923107840342070 3.6210041533198556 1.0051311359041599
10.0382595006149771 5.7948457584512134 1.0250192670651517
8.7873397026001392 7.9684675688772497 0.9999157871489912
7.5328934309447018 10.1450724721843812 1.0177412582412548
6.2760885296798534 12.3225538773140446 1.0057528378164304
1.2544603751460879 0.7242562142218570 4.3463411405882573
-0.0000656951597787 2.8971720508404286 4.3378201528734159
-1.2546299472771130 5.0700543187811640 4.3239689778317736
-2.5091899569414786 7.2432083410588586 4.3387666914721237
-3.7638831343711625 9.4161113232111440 4.3686236290258824
-5.0185247775492305 11.5889226691207927 4.3622872271232742
3.7636362358667523 0.7242114294331621 4.3301469091869462
2.5090713239303133 2.8973049794299461 4.3438784794341201
1.2544727603278782 5.0700911399786435 4.3538300086955806
-0.0000186746631121 7.2430522056923330 4.3493970974546148
-1.2545904151427356 9.4160710780574703 4.3554909005101647
-2.5093027191037947 11.5888866625575968 4.3460422972433452
6.2730033113579786 0.7242289516731456 4.3238831208203177
5.0182709285075440 2.8973552020212057 4.3389086835086168
3.7635521057560033 5.0702608870881685 4.3679467332011042
2.5085297323190607 7.2426727006569411 4.3632434362491228
1.2546453326611331 9.4159506603151293 4.3441977151049045
0.0000732289839934 11.5889205837565452 4.3366198566422103
8.7822700589445102 0.7242899680273602 4.3535173833406926
7.5276077550582228 2.8972090545268965 4.3497732766485671
6.2728809907117720 5.0702039548399531 4.3553559749088953
5.0183741661612382 7.2429798311175704 4.3474577842787907
3.7636508498618393 9.4168314102159023 4.3325296591599924
2.5092139507332885 11.5892417617460648 4.3421582104327570
11.2913169738899644 0.7245190898003747 4.3684746845532905
10.0367731425866680 2.8971143698568920 4.3631552306711630
8.7821898244006480 5.0700615411967851 4.3464468048606619
7.5275739828165342 7.2430906710364278 4.3377534250351246
6.2728399010140681 9.4162143875614568 4.3240671965400512
5.0183154617649457 11.5894837665805071 4.3391400542630825
13.8004486402495772 0.7244454690500298 4.3549399700846543
12.5458637535728155 2.8971369310841881 4.3462171321252665
11.2913357325278056 5.0700415947518911 4.3293858505912546
10.0367738327687555 7.2431610458330322 4.3429775519679952
8.7821449809550653 9.4161057944131432 4.3536529583001240
7.5274904959132751 11.5891354769223707 4.3485611301876386
7.5274345673051615 13.0376984490362453 7.6944951159037496
-1.2545436321209482 2.1730749339088211 7.6894313247677299
12.5460128736860170 4.3459663562849498 7.6433800367333733
11.2913793387641004 6.5187717775541376 7.6535814955666108
10.0367248163315850 8.6917368520314291 7.7266338999971298
8.7819927327223013 10.8647475441327206 7.7217919831580186
2.5091456832203058 0.0000778624519418 7.6892220887678429
1.2545874051262484 2.1729967494755433 7.6856798279207501
0.0000074885493652 4.3460422922142117 7.6749210904010940
-1.2546798822123064 6.5187874170601665 7.6521575605584511
-2.5091826921151710 8.6917581249515337 7.7075214650078419
-3.7637828190866962 10.8648476082359959 7.7334194319669667
5.0184200988590115 0.0001121561067840 7.6442832123536766
3.7637621057190280 2.1729276204305714 7.6572627504881101
2.5091272758307372 4.3459663837021294 7.7286248998152489
1.2545907383598405 6.5191919721574685 7.7266327757892208
-0.0000951661534010 8.6917707753698057 7.6991688980542108
-1.2545264718915399 10.8648667013664042 7.6897952218176684
7.5275893206210434 0.0000427694614360 7.6725424434173055
6.2729221099328143 2.1729358452546075 7.6530231901621137
5.0183903643559367 4.3458645109293466 7.7050124336450274
3.7637899375490464 6.5186916929877414 7.7244392120111698
2.5086231121041851 8.6918886231081753 7.6831702336439891
1.2546793745896927 10.8647701617660690 7.6832301013316027
10.0368260213913043 -0.0000105399024035 7.7274185851155082
8.7821338361395522 2.1729937473719296 7.7256133306701988
7.5275326613766422 4.3459495532989019 7.6973941534944563
6.2729360637152300 6.5189989682919229 7.6898352661705669
5.0184696051285211 8.6917280019858936 7.6448023993266609
3.7637114433937335 10.8643500447501236 7.6575241810165631
5.0183440035949847 13.0376152774394161 7.7049583634069192
11.2914432934231712 2.1730703975401378 7.7343454626362185
10.0368136107576156 4.3459389250456457 7.6891261871696033
8.7821783730815302 6.5188274383709066 7.6824204208211979
7.5274949008669276 8.6917900954704983 7.6735365313469792
6.2727411860476296 10.8646070205895366 7.6514940721943470
2.5093652006158549 8.6917605332502763 1.0052801541492566
3.7030226460987592 8.0025487925704581 1.0078491994989927
