rBN 3-layer slab
1.0
15.0551462173000008 0.0000000000000000 0.0000000000000000
-7.5275736112000002 13.0376828894999992 0.0000000000000000
0.0000000000000000 0.0000169606000000 10.0278787613000002
B N C
107 107 2
Cartesian
1.2519475008685421 2.1688559663868374 1.0047538140139574
0.0019749948626084 4.3512596115608222 1.0075171836948424
-1.2501183665310600 6.5211025803860680 1.0125956185460516
-2.5035815764601308 8.6926062913296693 0.9962141396984423
-3.7643140936784834 10.8649640696940804 0.9888576424121281
-5.0178089850982275 13.0375113608560724 1.0017839296345272
3.7642212586525217 2.1697592372405845 1.0116281017697275
2.5022625013885618 4.3284376442999610 0.9903757513109136
1.2714982495846330 6.5227181574551363 0.9931469425169774
0.0037371795770813 8.7047025083445888 1.0002978444813948
-1.2611852829305026 10.8685342902148800 1.0014250636211548
5.0179273861243834 0.0005376380220809 1.0147969943684125
6.2754379891611407 2.1698831212041139 1.0119404926728381
5.0190522096431343 4.3426105848131948 0.9954010856377034
3.7430045094107669 6.4965592016395215 0.9889371485806263
1.2451932038109013 10.8551001605813298 1.0020899087009225
0.0020267804646523 13.0324920153987218 1.0064569208702621
8.7833355297417874 2.1712659955280360 0.9922820353419312
7.5267165734416634 4.3470498165519516 0.9993328368094951
6.2635885034787195 6.5242262689630852 1.0019423314313760
5.0272831199793808 8.7208963044860219 1.0167319435605451
3.7688934041140709 10.8481833256517231 1.0112165871156640
2.5094575755026507 13.0325916366305670 0.9903828851894054
11.2908427565022418 2.1715877096796055 0.9895523732443945
10.0372305017632097 4.3456969984909692 1.0017584515189484
8.7806812718970946 6.5191868070356076 1.0039792569231292
7.5307254767392671 8.6929076520920390 1.0078462811475535
6.2847762743213025 10.8794249473414926 1.0127844195853686
5.0148184648448781 13.0331244326290001 0.9959481731988724
13.7989103209814807 2.1737831057567973 1.0017670105807579
-2.5084108370041038 4.3469633067265923 1.0141774913161543
-3.7618322203153829 6.5188252636936568 1.0108552898036032
-5.0144504921877084 8.6913627189278664 0.9911658778723664
-6.2697544188923846 10.8660604535429375 0.9917036508042264
0.0024015985595952 0.0043145392776550 0.9984218158145592
-0.0000179482435722 1.4486241001966949 4.3441286935204291
-1.2545597417404040 3.6214053589913027 4.3398468406334185
-2.5092952940555007 5.7942691638668489 4.3376776014845380
-3.7641771856687973 7.9673306508700863 4.3456736275624097
-5.0189270064354625 10.1403090864556678 4.3502996137823091
-6.2732869442766841 12.3133242703438661 4.3464727723276866
2.5090595549036916 1.4488622175927663 4.3413791163692039
1.2546626221871517 3.6216152189915189 4.3436608775485697
0.0001958821878992 5.7940447145038290 4.3426583871152316
-1.2546139267495064 7.9671386783073901 4.3452034214620783
-2.5095176425281815 10.1404231414999337 4.3486717567425739
-3.7641445950727306 12.3135255169155613 4.3439671174569785
5.0181847350829853 1.4490927329780001 4.3376409059772110
3.7637736439061942 3.6222499647759610 4.3452637217588999
2.5094963672960020 5.7949101697982321 4.3504164378383701
1.2557140366070156 7.9665991911153187 4.3476696969973805
0.0002969577459316 10.1402293035135678 4.3446222777412853
-1.2547726305330880 12.3135921820127194 4.3399453633492868
7.5274856176658238 1.4490017055791053 4.3424943006758774
6.2728043177718273 3.6222019186356249 4.3443823005227182
5.0182136223848426 5.7953809855588991 4.3471973964036099
3.7639888039087719 7.9672977454671035 4.3368115107633161
2.5104729671873263 10.1398600189924046 4.3425112568993542
1.2548620904742969 12.3135323232884044 4.3436710209786789
10.0369070508321538 1.4488269383375676 4.3505284708290093
8.7820271173985258 3.6218112568220011 4.3467211499590546
7.5271681105313890 5.7947394609103515 4.3436590405492082
6.2721539615088986 7.9671469305705234 4.3387005228930322
5.0181791347736038 10.1399707088274642 4.3380137399126468
3.7642799568115555 12.3134576976846564 4.3457799699959558
12.5460885165425573 1.4486753267677315 4.3483610858021509
11.2913227140131252 3.6215600908695151 4.3440061618517625
10.0364712758469423 5.7944776463048520 4.3411469858977538
8.7815432854370528 7.9672667264635004 4.3431329551013382
7.5269685445845642 10.1400651758477096 4.3419032943949869
6.2729410540413308 12.3133111408587972 4.3446365739691162
1.2544671319965697 0.7243746615795869 7.6869774359809542
0.0001438571682012 2.8973136988307773 7.6842702325716079
-1.2545328337255781 5.0699962328843231 7.6734139600332041
-2.5094308511396348 7.2429066170309611 7.6790735366681098
-3.7642469955814901 9.4160413360669040 7.7000553793097284
-5.0188070597776271 11.5890655301480088 7.6970219524689742
3.7635968321186946 0.7246564595981674 7.6763997160065500
2.5093027839766537 2.8976320453709312 7.6872918784398179
1.2550338956949956 5.0703969593747331 7.6955852277590582
0.0003018900455437 7.2426926150154660 7.6876888352412616
-1.2547047325144316 9.4159978692911963 7.6903358933373314
-2.5094869647691134 11.5892838862045267 7.6864961586398524
6.2728291340508155 0.7247659564145525 7.6735111284633772
5.0182926533129661 2.8979268348312401 7.6797884547949353
3.7641008103753024 5.0711867715760963 7.6987959505930741
2.5106087599062450 7.2436783614740250 7.6969888633632060
1.2558496323685679 9.4153530269654091 7.6843814952906957
0.0001167453544631 11.5892270744019825 7.6834856642102238
8.7822796020089271 0.7246418075398356 7.6942094442056543
7.5273880670765916 2.8977545934301028 7.6878708200351760
6.2726983023897613 5.0708466910906482 7.6905774658580635
5.0179884228627021 7.2434144658759543 7.6873069116440167
3.7640577724747035 9.4145821083182835 7.6767671843195853
2.5098140433898850 11.5889423687467321 7.6862828747296712
11.2916031504488394 0.7244078445314954 7.6998931472000427
10.0367184230455972 2.8974752373141581 7.6976819401496508
8.7818359082047746 5.0703971957343992 7.6870736291449617
7.5269393571248804 7.2430967620712048 7.6845292719660341
6.2722844464694756 9.4153388664935687 7.6735330085019937
5.0184487842801575 11.5885594567004802 7.6800225559403241
13.8005753199309051 0.7242431950995925 7.6895682070814146
12.5460270904499236 2.8972887402667360 7.6866505289887632
11.2911872551113817 5.0701436354119878 7.6757232264992528
10.0362945901320693 7.2430164749940795 7.6861641401939229
8.7815265004538752 9.4158300003004509 7.6941619096744782
7.5272139335362782 11.5887721599447904 7.6867752786820338
-0.0018983887935524 1.4497311068347052 1.0041687155581420
-1.2536629849397560 3.6250529918209442 1.0151976861493734
-2.5049069103678678 5.7968002125994982 1.0238906209637635
-3.7568911858548772 7.9678046305063797 1.0001667559326739
-5.0155485734251837 10.1404907402099465 0.9836978702352793
-6.2717137014617688 12.3149688580032066 0.9958004641424256
2.5084588029520010 1.4470086861367721 1.0125946256173892
1.2478601330234969 3.6145054286124063 1.0033524458147445
0.0077401992652852 5.8077535916318688 1.0089868804128868
-1.2415517576138382 7.9707027746584140 1.0063656782272887
-2.5087666200887249 10.1403490513151748 0.9929828410440648
-3.7628001924500349 12.3129523685864406 1.0044955673280291
5.0197653382740208 1.4464062783277272 1.0248110809820428
3.7623846252589455 3.6149030643873030 0.9994866856909245
2.4952934945131533 5.7705552732842662 0.9824333010474883
1.2828394788362836 8.0015565471564507 0.9999585979829098
-0.0059648693355710 10.1438674405343008 1.0036527818247047
-1.2543789971330837 12.3131406653528348 1.0154536532258494
7.5307668548435851 1.4425768574231599 1.0077950394176518
6.2749814463752349 3.6167294151464664 1.0053391706180408
5.0134000643185130 5.7859230478395860 0.9922544993163932
2.4938046144440578 10.0989947807606466 1.0093749272359860
1.2582100317877380 12.3004770807510884 1.0008450378542815
10.0369923655257907 1.4436605197890240 0.9844853693381808
8.7829360796074720 3.6202513853008438 0.9971855808475958
7.5244189245819815 5.7963973124948360 1.0042994789134738
6.2779219407636839 7.9761119998367631 1.0162405133833523
5.0322668835500473 10.1644369479434644 1.0264773574585837
3.7562437372036066 12.2999583341717376 0.9996780986145606
12.5434355023300839 1.4459251219411469 0.9935577684791792
11.2923180040179876 3.6210221236690745 1.0045395498271577
10.0382817951859771 5.7946915583701619 1.0111445432910375
8.7873576040244075 7.9683209780873163 1.0027852149871586
7.5327752995348645 10.1450278015274176 1.0087089283400923
6.2759130699089436 12.3226502531892432 1.0047063277206338
1.2545038133743402 0.7243311979318727 4.3463029764444077
-0.0000953152054857 2.8972170471707188 4.3435197388154112
-1.2546822687342412 5.0700910051585355 4.3388249909361827
-2.5091630752950906 7.2431723102562708 4.3436658067874205
-3.7638182274265222 9.4161231860743690 4.3537301672836479
-5.0184677420929260 11.5890334676120936 4.3516046706734866
3.7637027639927885 0.7243133620678720 4.3408913057250906
2.5090768628144482 2.8973069411878498 4.3454068308509157
1.2543820055605912 5.0700849890310673 4.3489225611189362
-0.0000599333462816 7.2430548609551018 4.3469510829219686
-1.2545398813293112 9.4160899378406171 4.3491947511947071
-2.5092338999646020 11.5890080960398443 4.3461199914800330
6.2729789482120735 0.7242905976450456 4.3388174629866016
5.0183064626704157 2.8973367300908599 4.3438087464205832
3.7635792005781492 5.0702726562609026 4.3533505473568592
2.5085226095143853 7.2427592947214103 4.3530317585660478
1.2546835673675627 9.4160171677728286 4.3441636264221968
0.0000616123767100 11.5889750683045989 4.3429046973404652
8.7822260834282915 0.7242967626480240 4.3485827671434967
7.5275998893597000 2.8972298951875910 4.3474714510974426
6.2729345286958624 5.0702237869401294 4.3494842503184277
5.0184288283868090 7.2430777366651347 4.3475435975120522
3.7637288037830658 9.4168658421305711 4.3427931744071095
2.5092364563584799 11.5892071908992413 4.3445376768615471
11.2913754218431261 0.7244934277281527 4.3536603550378299
10.0368197329032096 2.8972048727667237 4.3519282963514954
8.7822322809820506 5.0701355952689013 4.3464091113750527
7.5275612426600809 7.2431482179026734 4.3436166292212457
6.2728344350214345 9.4162426698086978 4.3387239282951029
5.0183538938777552 11.5894004211751440 4.3440256030226427
13.8005011133802125 0.7244431404217763 4.3492263843545258
12.5459187490757671 2.8972332736918935 4.3462937245178290
11.2913909651671744 5.0701253827479817 4.3406710426310946
10.0367952103178961 7.2431647191425412 4.3452055794834399
8.7821110517289469 9.4161289244054185 4.3487234233224639
7.5274894275014335 11.5891411638434452 4.3469678918994692
7.5274721446826298 13.0376957516972052 7.6912685099940150
-1.2545812901003182 2.1730040992783990 7.6895641250654529
12.5459797318536328 4.3459053502663725 7.6741866881196410
11.2913586841975970 6.5188027418529737 7.6775241624865300
10.0367384219484546 8.6917778443485059 7.7018841991788136
8.7820577421389991 10.8647607608749652 7.7002065290909805
2.5091378306683634 0.0000601804513664 7.6894633684866598
1.2545695270393209 2.1730254988784585 7.6883298569726426
0.0000247379605068 4.3460218972473141 7.6848015997293366
-1.2546335301926717 6.5187963367166226 7.6770452319737004
-2.5091896376774221 8.6917623537728108 7.6957397341575939
-3.7638038864639687 10.8647871057784204 7.7041798093524898
5.0183838783914023 0.0000641014321751 7.6744680625196935
3.7637449149131048 2.1729933589634887 7.6786960520737795
2.5091517324445856 4.3460402162733924 7.7027323881314045
1.2546940611015125 6.5191660970123300 7.7035224596942644
-0.0000549597990392 8.6917541484959884 7.6935791101033821
-1.2545688799842909 10.8647892993216715 7.6899483294964535
7.5276024938805755 0.0000413290903243 7.6840799530812856
6.2729570130645049 2.1729688935525053 7.6773478535550872
5.0183805247506532 4.3459050316170922 7.6943872018171788
3.7638236040053483 6.5187332004359213 7.6983880833573037
2.5086937626985226 8.6920108401354614 7.6834071216067823
1.2546469316023554 10.8647990037508428 7.6882652598594978
10.0368140008612894 0.0000371156815766 7.7021321285059985
8.7821772154407629 2.1729946961069069 7.7015348452873349
7.5275574458477950 4.3459402515446834 7.6920984810362443
6.2729014822374678 6.5189412826090338 7.6899670111233807
5.0184892944261739 8.6917849242603342 7.6718429980174134
3.7636419334274205 10.8644347329633622 7.6804868174284699
5.0183234491707589 13.0376195620391719 7.6948155817918416
11.2914122595653108 2.1730087266252620 7.7045086007751626
10.0367985087508895 4.3459108858147291 7.6893859637103965
8.7821570184135123 6.5188426540344633 7.6871069767820597
7.5275379856151350 8.6918004857105835 7.6838975174538620
6.2727952850186117 10.8646653609916974 7.6770233148591416
2.5093455062324459 8.6917225791420876 1.0051126246328395
3.7030249528242525 8.0025519035752790 1.0072369047243221
