rBN 3-layer slab
1.0
15.0551462173000008 0.0000000000000000 0.0000000000000000
-7.5275736112000002 13.0376828894999992 0.0000000000000000
0.0000000000000000 0.0000169606000000 10.0278787613000002
B N C
107 107 2
Cartesian
1.2520697422508598 2.1687671222436027 1.0133364363042368
0.0021366626833725 4.3512324361682362 1.0120383969463931
-1.2500582731727325 6.5210779497682765 1.0121173630444975
-2.5036177934187935 8.6925662032837465 1.0136468951679831
-3.7643623290546819 10.8648697939065055 1.0153025206713613
-5.0178317142246991 13.0373626087940302 1.0149434315557366
3.7642977849317618 2.1696432153648044 1.0140304021942481
2.5023783132617150 4.3283874565053582 1.0117525046469857
1.2715232854106986 6.5226894911157176 1.0114362123915910
0.0037015724405848 8.7046931731694421 1.0120794045556731
-1.2611269756951307 10.8685033616248568 1.0147081397103808
5.0179801024044339 0.0004322952110708 1.0154578762904720
6.2754306543329994 2.1698594613867899 1.0140534436353124
5.0190730074539616 4.3426349664410386 1.0123538943867114
3.7430471088037107 6.4965694576140764 1.0109859720287395
1.2452558162920511 10.8550688765435126 1.0120782994885105
0.0021116101193406 13.0324650527403794 1.0137935140646177
8.7833127688989006 2.1712545422526950 1.0135341782715062
7.5266941568159389 4.3470163736461922 1.0136542377124915
6.2636631243349079 6.5242194825239199 1.0117873578380803
5.0272918350881213 8.7208771605578512 1.0108147434049226
3.7689123182410635 10.8481443329020344 1.0112629845375607
2.5095188075096142 13.0326268876460034 1.0121073901254591
11.2909109331166775 2.1716232683863979 1.0130157012578058
10.0372692267624455 4.3456028270586717 1.0139866057088898
8.7807603589365559 6.5190465720769568 1.0135059351515621
7.5307388887608893 8.6928191773382792 1.0119975995748898
6.2847286822060200 10.8793808036314559 1.0113711499139562
5.0148216128514331 13.0331548208510437 1.0118347881561911
13.7990350490151776 2.1738167650090721 1.0127117760419446
-2.5082725261161012 4.3469385142198647 1.0130356995866101
-3.7617497239981583 6.5186973827040449 1.0133786317455906
-5.0144812248209618 8.6912119789638105 1.0137319494096768
-6.2698615414165051 10.8659437166720689 1.0136556878195275
0.0023526726632933 0.0042682034680950 1.0131521926890705
-0.0000306434274828 1.4486481111350793 4.3215101880685856
-1.2545894132725242 3.6214330651755278 4.3211378888262644
-2.5093151334933981 5.7942986872068731 4.3203775716419717
-3.7641791923291308 7.9673658624776396 4.3200734167283716
-5.0189210563912319 10.1403489512751204 4.3202795885017276
-6.2732838400356838 12.3133555526377361 4.3209405214675369
2.5090465489714582 1.4489014263851354 4.3207551734631817
1.2546123546028942 3.6216272066618909 4.3229753438346243
0.0001455626323601 5.7940483314034967 4.3232432835516628
-1.2546340408659700 7.9671621269702610 4.3214979282508086
-2.5095131488231801 10.1404565875185106 4.3196425708589210
-3.7641385175043482 12.3135725587452782 4.3191843972613979
5.0181755424474774 1.4491333699005025 4.3198525613256225
3.7637594323165420 3.6222766779403051 4.3226677151989259
2.5094422873852471 5.7949269115579067 4.3261797889483722
1.2556897950897030 7.9666172736925942 4.3259695916925018
0.0002832725579755 10.1402559993488097 4.3219140443924875
-1.2547867047931689 12.3136278167207465 4.3194431226851684
7.5274715108480050 1.4490227075720163 4.3196089826410331
6.2728075745519689 3.6222154389463022 4.3215540790466100
5.0182109600861891 5.7954014580345765 4.3246002182066210
3.7639759036123657 7.9673612225428077 4.3200705549072111
2.5104759728244153 10.1398948432726517 4.3259824094722408
1.2548480679198022 12.3135562209584872 4.3213105255481308
10.0369044638483942 1.4488484667193877 4.3201879136735872
8.7820331900798365 3.6218354539279347 4.3201156009678723
7.5271623494175621 5.7947609465479424 4.3227146923131663
6.2721313197343642 7.9671792062402007 4.3247795842338812
5.0181603159636650 10.1399998642278337 4.3263817185306026
3.7642731729468419 12.3134779381321255 4.3232955455389916
12.5460866573779839 1.4486940562451900 4.3211517304507794
11.2913256815030039 3.6215947347153969 4.3197940378592117
10.0364712482352569 5.7945118818317294 4.3203349449295780
8.7815297072061149 7.9672986795654888 4.3220270771991922
7.5269540331034861 10.1400906819936107 4.3230563500276098
6.2729447126164066 12.3133263250597125 4.3231813320544754
1.2544640486755321 0.7243948329988643 7.6951680825374194
0.0000976504309115 2.8973014248488034 7.6965245669652251
-1.2545600601505176 5.0699755550429373 7.6971463353046223
-2.5094416685923258 7.2429086462488055 7.6966053414489606
-3.7642641024363899 9.4160314976344335 7.6955823579890277
-5.0187969812135700 11.5890628814945487 7.6945988816187345
3.7635711690159859 0.7246743499029064 7.6948818655725360
2.5092655744615908 2.8976765280968211 7.6960699732382416
1.2550233374184725 5.0704001798441229 7.6984940526248948
0.0003290884817114 7.2426862536339236 7.6982807945562888
-1.2547238375875536 9.4159665747323320 7.6974060922121064
-2.5095276636292447 11.5892468970426368 7.6955485947896509
6.2728027437552836 0.7247676626458402 7.6960200354729489
5.0182857523818187 2.8979475774402705 7.6959871929806578
3.7640855724350004 5.0711921742399086 7.6964002380906180
2.5106001839215843 7.2437003753909455 7.6983052837295380
1.2558281052601279 9.4153941712891047 7.6960755508052570
0.0000564500731525 11.5892317784797214 7.6975741574789245
8.7822600638739434 0.7246583962163740 7.6969201470785391
7.5274183355231559 2.8977515325132241 7.6964696089722047
6.2726995766509068 5.0708190624107958 7.6973999407687721
5.0179632060566126 7.2434019192776740 7.6979785029576817
3.7640218920135471 9.4146187346305865 7.6982680238066941
2.5097651097322262 11.5890052168129820 7.6983899432127938
11.2915824449272311 0.7244049934596083 7.6972072680787633
10.0367224714396155 2.8974650752985553 7.6966769003718483
8.7818354961311709 5.0704017475428866 7.6966339364077081
7.5269072416060210 7.2430944564315993 7.6971346923967960
6.2722799982795792 9.4153572268716061 7.6960617231563626
5.0184372658037830 11.5885888746689094 7.6983335772021357
13.8005695292216242 0.7242163187947730 7.6964139100531401
12.5459906957361760 2.8972438555965243 7.6968024557983847
11.2911634956043407 5.0701444732485443 7.6965297061126652
10.0362629930861544 7.2430464944317006 7.6960441610297172
8.7815302454150608 9.4158473247020247 7.6954346504255362
7.5272561493893502 11.5887841965831555 7.6956834806444370
-0.0018164268489013 1.4496858766835241 1.0159485128777610
-1.2535039816276503 3.6250409188915800 1.0152475424015599
-2.5048052606165716 5.7967553881366163 1.0155086161033970
-3.7569178995385935 7.9677261928162642 1.0161133280502590
-5.0156382043633716 10.1403648161262030 1.0171132293846477
-6.2717769048586538 12.3148392305545666 1.0169183110804483
2.5085258641944290 1.4468676104788363 1.0171303107151271
1.2480262010640690 3.6144438459590948 1.0147395188445911
0.0078491323248843 5.8077354641989212 1.0142732193882016
-1.2415700524895268 7.9707053377255068 1.0148639821300203
-2.5087849307236127 10.1403208391365460 1.0179358312780815
-3.7628127973298304 12.3128160593449447 1.0184037632550216
5.0198128924430288 1.4463020157162274 1.0174660695204054
3.7624689021539801 3.6148642295065065 1.0152085583982779
2.4953717070500110 5.7705323953636558 1.0134905764543580
1.2828524245027790 8.0015241302817302 1.0139811613564897
-0.0059160591154438 10.1438362509155056 1.0158252256861826
-1.2542985314692108 12.3130790959746363 1.0180283425091863
7.5307972290633671 1.4425705795845174 1.0163652720694645
6.2749638751096271 3.6167491887065015 1.0161467255700229
5.0134317711719003 5.7859496339726171 1.0135892043021382
2.4938258773205009 10.0989325696920655 1.0139159179342294
1.2583118967625038 12.3004784142155454 1.0149210209525674
10.0370319230822247 1.4437287976914368 1.0155597753767336
8.7829303562618044 3.6202061989604903 1.0167544814074598
7.5244644503190514 5.7963343821546927 1.0159176783137911
6.2779337791439929 7.9760612949497656 1.0133711709385251
5.0322546441558176 10.1643911562955189 1.0132164675634945
3.7562654495947276 12.2999791756557215 1.0141085936034551
12.5435096552022962 1.4459661523994156 1.0151258025947001
11.2923930179341365 3.6209895123825890 1.0165250959390550
10.0383433221256126 5.7945677593876210 1.0166314650426440
8.7873535355514427 7.9681868499101549 1.0158436419131534
7.5327379400822148 10.1449329030353930 1.0147209997355033
6.2758754983846261 12.3226313457553314 1.0144243964645776
1.2545004610803547 0.7243792861044540 4.3231923042127276
-0.0001384765856493 2.8972464240355467 4.3239519769986474
-1.2547374839460741 5.0701144598319141 4.3234178885641938
-2.5091608603643452 7.2431672372444291 4.3221000772404148
-3.7637997491098782 9.4161411786156055 4.3217781351976363
-5.0184610630518725 11.5891013596770804 4.3220462094067136
3.7637141858786429 0.7243780154659958 4.3218212786483488
2.5090506271401778 2.8973223894066131 4.3243860648401409
1.2542864571688788 5.0700789757053517 4.3268219490219453
-0.0001103023734638 7.2430602905351691 4.3247168547700170
-1.2545237098724702 9.4161070097838611 4.3222499369527414
-2.5092116822976438 11.5890741305297897 4.3208744494234743
6.2729488185829396 0.7243226537596451 4.3213581256790601
5.0182998370123286 2.8973378590888079 4.3236211091431951
3.7635534681801972 5.0702929280834876 4.3273831299210652
2.5084509928131142 7.2427962638182928 4.3310692336169057
1.2546895190894574 9.4160549661953361 4.3236617657441085
0.0000449522764235 11.5890026035288702 4.3221045294346236
8.7821886350913925 0.7242981591784672 4.3217714383127417
7.5275799624772706 2.8972376088103386 4.3225124478745149
6.2729421453318022 5.0702369809807699 4.3263330703217990
5.0184374286283946 7.2431334377063150 4.3305177644356379
3.7637375646844244 9.4169388134709759 4.3311458013029585
2.5092305300315663 11.5892070058775438 4.3246778878479075
11.2913837032763293 0.7244947408640071 4.3233759619178267
10.0368312878864767 2.8972499055551690 4.3218311737548536
8.7822422945341039 5.0701758989672134 4.3233438226834799
7.5275392394417269 7.2431871203138352 4.3265823273370962
6.2727974353177478 9.4162769034577014 4.3276562038192141
5.0183519067186451 11.5893977537601884 4.3270710714518801
13.8005048301103592 0.7244557081782276 4.3240305503434762
12.5459289878768399 2.8972855813417437 4.3224789002582362
11.2914087670528698 5.0701714614352866 4.3219818451680299
10.0367963208508293 7.2431771434630932 4.3229743513895764
8.7820710040520424 9.4161519625021306 4.3241824686008643
7.5274595279713434 11.5891538991972016 4.3246655628197814
7.5274781396952637 13.0377012346758026 7.6983756550262150
-1.2546151935488414 2.1729723721548044 7.6993447516196554
12.5459463846272552 4.3458706416908397 7.6996077318234892
11.2913360465419803 6.5188130078280295 7.6989594756072037
10.0367334081675725 8.6917971565325622 7.6981489461256771
8.7820816213261654 10.8647722844442001 7.6974296504820421
2.5091227104262304 0.0000542813993506 7.6972420927334371
1.2545437801777242 2.1730410389281958 7.6985876154419026
0.0000084733497859 4.3460087810595924 7.7002292829970527
-1.2546383291477101 6.5187972416087971 7.7003432866600683
-2.5092166416574324 8.6917667408304045 7.6996391356274847
-3.7638269362092758 10.8647592473853347 7.6977393242680714
5.0183525960609874 0.0000432618997867 7.6980291735542048
3.7637226274051518 2.1730268718515475 7.6979262303245459
2.5091422401397288 4.3460724939652149 7.7000338272230442
1.2547157633930659 6.5191516179722946 7.7035018729102820
-0.0000721450340878 8.6917508072641638 7.7024014082427259
-1.2546119022619449 10.8647573433842162 7.7001481732714634
7.5275890177787508 0.0000510264304619 7.6999978366768236
6.2729625590514599 2.1729873922235425 7.6987156617513728
5.0183626580095053 4.3459218108071687 7.6988388167676858
3.7638156145484944 6.5187560487023140 7.6960115455196734
2.5086830951318388 8.6920934692758678 7.6951769229742348
1.2546024559648130 10.8648343897489426 7.7025089638123045
10.0367907707665438 0.0000778777380700 7.7005189298463046
8.7821889499611423 2.1729971500631962 7.6992954725477665
7.5275655272177247 4.3459289496102800 7.6992213083832119
6.2728776813306881 6.5189087419107885 7.7002762079908100
5.0184798762704377 8.6918275202597233 7.6958906518725838
3.7635905495896451 10.8644983828925792 7.7035059370569083
5.0182982624486323 13.0376379508116571 7.7001280021698122
11.2913850229683153 2.1729850938430326 7.6996782418090106
10.0367852604416310 4.3458909442511970 7.6991720240635653
8.7821426225336801 6.5188440045449809 7.6989432689228519
7.5275517583261298 8.6918080701951670 7.6983691796325040
6.2728117364147176 10.8647080370012130 7.6996596663417245
2.5093205302751898 8.6917095188081639 1.0134788870533538
3.7030077445531484 8.0025629277592980 1.0145504848726807
