rBN 3-layer slab
1.0
15.0551462173000008 0.0000000000000000 0.0000000000000000
-7.5275736112000002 13.0376828894999992 0.0000000000000000
0.0000000000000000 0.0000169606000000 10.0278787613000002
B N C
107 107 2
Cartesian
1.2521293066307688 2.1687441072268032 1.0054849109394617
0.0022384486622249 4.3511980836847730 0.9885606620753108
-1.2498341417131886 6.5209659541459617 0.9922500202823047
-2.5033454384318272 8.6923432207872686 1.0081981344796662
-3.7641556474899436 10.8646697639928433 1.0249427652090422
-5.0177048660372776 13.0372751651309304 1.0245315188445066
3.7644493864101922 2.1696331512150517 1.0110401684242996
2.5024427385686940 4.3283791571011792 0.9726536020161676
1.2716833843386686 6.5226398897472073 0.9536482051773022
0.0040219675433762 8.7045564608638824 0.9668705474362866
-1.2608566060082873 10.8683349761293950 0.9998286231131142
5.0182462873599301 0.0003338118492171 1.0246210245078093
6.2756942497415666 2.1698091876147467 1.0208480992696238
5.0192050831637145 4.3426170440486418 0.9869173471568830
3.7431093990557742 6.4965633502280644 0.9463781771509711
1.2455269562971425 10.8548552700953369 0.9662603972198798
0.0024285252259395 13.0323225347674096 1.0071869177901676
8.7835749767219280 2.1711492853856846 1.0280236063668144
7.5268893560924344 4.3469512628188527 1.0212729764248849
6.2637249238699377 6.5241789348308066 0.9766651173757463
5.0273319908339698 8.7208174755536252 0.9458612034406960
3.7690294605535239 10.8480242184647153 0.9525861604668785
2.5097187097988161 13.0324724455784526 0.9909290200455072
11.2910698430827399 2.1715128664008230 1.0222208239689696
10.0374716239507933 4.3454716463144143 1.0415049708079562
8.7809034938858161 6.5188921141018579 1.0215898845200229
7.5308182973565225 8.6927032498974004 0.9867218304432515
6.2847585991803685 10.8793168568788339 0.9716501766523288
5.0148931488874169 13.0330707585211503 0.9874415524773783
13.7991027791960068 2.1737648862971310 1.0087508416390216
-2.5081096483825829 4.3468341866072064 1.0229264797357787
-3.7615399917170316 6.5185026060048008 1.0290703008167721
-5.0143174283172343 8.6909897508125287 1.0214694576502168
-6.2697894527760898 10.8657987523985948 1.0108323155302772
0.0023914037407573 0.0042079359730142 1.0049876471900796
-0.0001304024867929 1.4487108261454682 4.3381931830349068
-1.2546473192833549 3.6215396911274955 4.3513544399927913
-2.5094389787683076 5.7945071094813700 4.3450960770185381
-3.7643701969315959 7.9676422392090931 4.3247692307609613
-5.0191282340100019 10.1406027561780245 4.3108897920542324
-6.2734604175438795 12.3134938949940285 4.3178814095523608
2.5088481258320021 1.4489980504000310 4.3171204514075772
1.2545476479671340 3.6217533655538228 4.3514517720101038
0.0001118004224137 5.7942422377393372 4.3705220258405753
-1.2547485510772307 7.9673646121918846 4.3557455311028619
-2.5097318729884126 10.1406661975998293 4.3200079005432759
-3.7643913150724679 12.3137307627526003 4.3007409795490554
5.0178611113388349 1.4492012014801920 4.3101472010598041
3.7635504596129463 3.6223318979078361 4.3407839267353578
2.5094337472410011 5.7950095523738714 4.3807578437520576
1.2555797610425132 7.9667969087334738 4.3926562247571654
0.0000893228538239 10.1403740041890362 4.3623436290279205
-1.2550716279661598 12.3137267503641734 4.3200095847859084
7.5271407637898777 1.4490635100379039 4.3247800166879244
6.2724806123224690 3.6222807993964286 4.3303868700239940
5.0180122942840475 5.7954584202497692 4.3662544364053719
3.7639435510271944 7.9673868799212704 4.3913701809521282
2.5102668397333874 10.1399119625167682 4.3934212963211960
1.2546142086976499 12.3135651971433209 4.3565321124353442
10.0366625839292674 1.4488621158756110 4.3458829718676659
8.7817247009324664 3.6219381503758648 4.3305012976474480
7.5268923931977003 5.7949218794000341 4.3413605429711284
6.2719873585118542 7.9673316779980521 4.3670053727950666
5.0180849778923626 10.1399712931811585 4.3822721646924290
3.7640851734624317 12.3134203572121521 4.3720750164650859
12.5459682728701249 1.4487023512931172 4.3521353606369244
11.2911452898036302 3.6217051607075912 4.3408067383651652
10.0362340675698167 5.7947361332974294 4.3304947521716999
8.7813160779785200 7.9675605048194784 4.3311135131589511
7.5268060072556153 10.1402565099187942 4.3422875027171850
6.2728006104081189 12.3133262342374561 4.3529834075541105
1.2546034214422026 0.7243156058702447 7.6982886007006215
0.0001572723456011 2.8972035493933133 7.6837881904458021
-1.2546030884050541 5.0698742580931588 7.6734330861940778
-2.5094902447284460 7.2428325809529222 7.6775240234591609
-3.7642099908304165 9.4159921090220973 7.6914962903718189
-5.0186612397035724 11.5890197945665658 7.7017160369774178
3.7636752918739416 0.7245803590415547 7.7022407695669113
2.5093690453097355 2.8975302561451359 7.6993419431922563
1.2550360558249349 5.0702854231409367 7.6936212939389472
0.0002252086082688 7.2426051569573477 7.6894680256017915
-1.2547850315459661 9.4159445704761193 7.6925724414571643
-2.5094951247439878 11.5892269270697721 7.6984930517722665
6.2728621300549374 0.7247419289556295 7.6923115543185734
5.0184218994826661 2.8978127019089146 7.6966855077009262
3.7642324701262293 5.0710732213429868 7.6997854572567483
2.5107070256868789 7.2437232641440836 7.7005986776858366
1.2558618618923598 9.4153716837391919 7.6943370844831955
0.0000424948332669 11.5892937042023210 7.6928635851235398
8.7823004644857416 0.7247427456906320 7.6780827581031517
7.5275432726860840 2.8976888282147915 7.6797278299176073
6.2729156720418695 5.0706716182157123 7.6918923536187602
5.0181451593538871 7.2432978753001116 7.7014207396687091
3.7640551073691921 9.4145118268897647 7.7003855900272882
2.5097814785143315 11.5891348776855487 7.6895096088689527
11.2916504888373659 0.7244963457830236 7.6734567670546063
10.0368018409268718 2.8974764771472730 7.6641368781134362
8.7820034827139430 5.0703099896593296 7.6734173520660498
7.5271472715598486 7.2429836504595491 7.6913950596200920
6.2724586319325590 9.4152889814437675 7.6990766151209380
5.0185443407528973 11.5886339166030314 7.6931477285117831
13.8006868359398478 0.7242162532355315 7.6835395935583559
12.5460380268026750 2.8972207544471646 7.6657588603560178
11.2911998859296272 5.0700795121410289 7.6638681086084075
10.0363854413780018 7.2429734533044847 7.6789348562365545
8.7817192633739793 9.4157973144298577 7.6956577048667683
7.5274378018210912 11.5887677846352464 7.6985856655034350
-0.0017606878869601 1.4496411694470344 1.0112001364129914
-1.2534460177432096 3.6249547084205602 1.0109228133920638
-2.5046760660207883 5.7965883297618603 1.0215151638705269
-3.7567352812847234 7.9675000832039515 1.0261617568566577
-5.0154757474194920 10.1401800122230661 1.0259808553523164
-6.2716578130774456 12.3147524879976462 1.0195716455560178
2.5086483077593056 1.4467880440864347 1.0198765606175904
1.2480517505760518 3.6143426731960542 0.9893233575959557
0.0079123575693130 5.8076049157392244 0.9759726177475690
-1.2414013769718057 7.9705445215897326 0.9888911087586029
-2.5086000930579484 10.1401313530400135 1.0159547419275430
-3.7626150909431586 12.3126880433795964 1.0330977899713718
5.0200420149074088 1.4462338889166879 1.0256432810808267
3.7625858410374091 3.6147559090062238 0.9902816508449306
2.4953972739480808 5.7703964908274097 0.9509805434059743
1.2829895601836232 8.0014116240485329 0.9510833808576009
-0.0058013872531953 10.1437608457153754 0.9752791709734638
-1.2540548863239618 12.3129925232964421 1.0153884386258514
7.5310721388433608 1.4425059139118952 1.0250504874904733
6.2752126833502748 3.6166471460567839 1.0146627673907374
5.0136030254690160 5.7858079345913902 0.9653341043795199
2.4939821428365074 10.0988689619391820 0.9505348755317838
1.2585242675312300 12.3004008212113973 0.9877273950931337
10.0372301364471213 1.4436819365194535 1.0202479771124158
8.7831823022045779 3.6201028703513738 1.0417914378631545
7.5246782725691821 5.7961998343788501 1.0112969217237429
6.2781466001093840 7.9759771582246524 0.9650745237744656
5.0323780123773698 10.1644261970252714 0.9498724572930011
3.7564035239722302 12.2999810752926209 0.9746525050783793
12.5436034668517422 1.4459445400196107 1.0101881073354628
11.2925468406498144 3.6208878035701311 1.0408892601731086
10.0385483204225068 5.7943822878281024 1.0423794483737037
8.7875590898660345 7.9680041924786265 1.0149879457285340
7.5328802830467110 10.1448707215824676 0.9897168260661190
6.2759669664099169 12.3226454640001943 0.9882590359893028
1.2542767614346624 0.7245154653410629 4.3233370526107890
-0.0002082722472644 2.8974050623615439 4.3495121687677853
-1.2547179598827078 5.0703129973157584 4.3590274883430897
-2.5092286263511316 7.2433757858838712 4.3422805517155565
-3.7639838723669468 9.4163531490440224 4.3150722342534449
-5.0187251671990598 11.5892775557857011 4.3056928995671644
3.7634414498703452 0.7245350990741353 4.3050992818964477
2.5088605171060681 2.8975318397697012 4.3373571983541463
1.2543211709280997 5.0703501488273952 4.3735545391790316
-0.0000546741610382 7.2432507464032900 4.3794859354566276
-1.2545958932011487 9.4162266082636190 4.3473706130842675
-2.5094045313629105 11.5891955262336079 4.3092127857503790
6.2726818222956853 0.7243896121731526 4.3147932620579343
5.0179954538954403 2.8974992324179722 4.3261397105421704
3.7633941160570799 5.0704905137265470 4.3687692200828394
2.5086051089508383 7.2430136604022115 4.4014042056593592
1.2546474343320231 9.4160879312788168 4.3909650191899114
-0.0000900333386710 11.5890175911294104 4.3476946444794420
8.7819763632743708 0.7242629811933247 4.3429314686525489
7.5272584992247884 2.8973300596504057 4.3271293712608978
6.2726123341336608 5.0704264202867861 4.3492045764741123
5.0181875101752080 7.2432850229732635 4.3879348419441015
3.7636293347302470 9.4167065043382188 4.4022939214412116
2.5090925673357956 11.5890762197952544 4.3807605790596966
11.2912227003037664 0.7243875086857005 4.3602948489350419
10.0366184624682635 2.8972897226616166 4.3393113283416120
8.7819399330962558 5.0703556986460780 4.3340423126172505
7.5272155820351143 7.2433885311622754 4.3497816845305026
6.2725499779235880 9.4163276762863148 4.3702711104438130
5.0181281331329028 11.5892366272951381 4.3753836928018774
13.8003324161818988 0.7244418548835290 4.3504386441597989
12.5458446100147949 2.8973386069231437 4.3501297018148080
11.2912724440092411 5.0703426814229529 4.3389885120876848
10.0365610576632864 7.2434201434851042 4.3273973019685696
8.7817835875489845 9.4163496251418550 4.3272864103522490
7.5271849964323723 11.5892267781188139 4.3388695588971755
7.5276648218759785 13.0376534503891950 7.6974205052210607
-1.2545079998511302 2.1729135765487992 7.6780126052320163
12.5459585741608670 4.3458111840658944 7.6659483109575639
11.2913545225896357 6.5187681579818966 7.6731153435241621
10.0368592428065000 8.6917772884351177 7.6912198668310943
8.7822790389641394 10.8647518758395201 7.7031156928761710
2.5092691467549799 -0.0000283235842021 7.7062697063182233
1.2546794826885865 2.1729069543502471 7.6978325174167495
0.0000428900192306 4.3458980047707234 7.6850910739402254
-1.2547110951786891 6.5187209844467633 7.6810457801207885
-2.5092529474435561 8.6917479300721396 7.6899182056829849
-3.7637564462370308 10.8647462194896960 7.7017611681446398
5.0183979439413431 -0.0000097985892184 7.7022995994704830
3.7638376241414027 2.1728703504429148 7.7040379793400300
2.5092383947540844 4.3459141249770425 7.7022906429227218
1.2547040961469742 6.5190894300859057 7.7008302269902105
-0.0001631106903983 8.6917282509294367 7.6981928931777936
-1.2546527055761434 10.8647794747866282 7.6990879832588952
7.5275849922884559 0.0000928693403501 7.6905828063189032
6.2730413401285476 2.1728921000459098 7.6922760090393920
5.0185247685606829 4.3457402152744802 7.6996172036533190
3.7639574844524391 6.5186165625063346 7.7004323224037847
2.5086604967267760 8.6921037449350482 7.6968567251687077
1.2545736924584499 10.8649211493029689 7.6983275829820954
10.0368184379389369 0.0001818564747409 7.6812844932562889
8.7822393986160598 2.1730117781211624 7.6737484896818255
7.5277212399911484 4.3458199669290920 7.6826667645023274
6.2731148272165305 6.5187733180000418 7.6986423705087796
5.0186712441403039 8.6917730872716970 7.7001105353889541
3.7636366953776075 10.8645373500630686 7.7005575965124606
5.0184129606284449 13.0376654177721640 7.6847984368963083
11.2914457060211930 2.1730098157207385 7.6660569283612991
10.0368597798589274 4.3458557992930285 7.6654501006763054
8.7823204069739838 6.5187680979801490 7.6821538514392627
7.5277930618234290 8.6917588882914227 7.6987317095221934
6.2729988312962703 10.8647034470472157 7.7015030371569404
2.5096904851194886 8.6914958429651854 0.9457665753436194
3.7032027113459747 8.0024485426626821 0.9412589144948498
