rBN 3-layer slab
1.0
15.0551462173000008 0.0000000000000000 0.0000000000000000
-7.5275736112000002 13.0376828894999992 0.0000000000000000
0.0000000000000000 0.0000169606000000 10.0278787613000002
B N C
107 107 2
Cartesian
1.2520379346766113 2.1687678406049002 1.0028013925757246
0.0021807384267143 4.3512219988817575 1.0039624288288607
-1.2500156230869441 6.5210215252641177 1.0103969449499937
-2.5035894795458895 8.6925120998220731 1.0042285637402451
-3.7643480466787738 10.8648736676222750 0.9910477667127153
-5.0178640715320943 13.0373801311017594 0.9962470047052511
3.7643102487288069 2.1695600962750352 1.0085557522163828
2.5024348211815135 4.3283298597121753 1.0117090612564430
1.2715612517259280 6.5226813787409297 1.0095576666402806
0.0036711585394810 8.7047057808831951 1.0045816161423182
-1.2611805320421003 10.8685325160738042 0.9887157710318851
5.0179779445065558 0.0004107182475943 0.9911291722010379
6.2754737170420665 2.1697820360393796 1.0114185088531142
5.0190853103428479 4.3425538376082455 1.0041512947709543
3.7430318218769130 6.4965549204971067 0.9886032374087511
1.2452343117737676 10.8550954193477338 1.0045485446113893
0.0021682118070922 13.0324656446024036 1.0042540616678135
8.7833451515631307 2.1712733172355962 1.0083758696025398
7.5266296856815682 4.3470376451572976 1.0044853531557909
6.2635812648458744 6.5242652746091654 0.9873325365212758
5.0273012256371006 8.7208969424181859 0.9886806686338774
3.7689401412871315 10.8481176911134227 1.0095745950524726
2.5095893579408255 13.0326201959348182 1.0102935837609286
11.2909012736505332 2.1716436261858263 0.9903376251693642
10.0372019005540558 4.3456378543159797 0.9971895533875218
8.7807041166035464 6.5190821950470772 1.0044509889338138
7.5308183859270219 8.6928474965518241 1.0041761322510840
6.2848072827869261 10.8793613943876082 1.0118185648137572
5.0148536937576784 13.0331245492832082 1.0039436617855773
13.7989866284724645 2.1738466961869336 0.9878499604176167
-2.5082947609737132 4.3469376577437826 0.9904044260729724
-3.7617518262857454 6.5186541874461463 1.0083896112308901
-5.0143946998726294 8.6912048694470290 1.0113091525375464
-6.2697843431201497 10.8659720954470203 1.0085303481978729
0.0023368619265710 0.0042950201321238 1.0028358430005402
-0.0001007558910120 1.4486915996087351 4.3412229677361198
-1.2545773378370888 3.6214511395756621 4.3367020743447844
-2.5092873953653485 5.7942394513045015 4.3455093626219776
-3.7641338590521833 7.9672956966269570 4.3501802595690178
-5.0188613389597085 10.1403595454274011 4.3452859972295865
-6.2733240556059124 12.3133972405313941 4.3449791655785504
2.5089936912025084 1.4489200849135988 4.3449736190962218
1.2546771397813157 3.6216578391282899 4.3491930461655075
0.0002509735205905 5.7940483257637911 4.3508633519299567
-1.2546241067985273 7.9671084267005288 4.3494398278674895
-2.5095339276624573 10.1404475658068520 4.3364977360472432
-3.7641875808544842 12.3136010342450799 4.3338487406221402
5.0181969784313223 1.4490806408700310 4.3453525366062458
3.7638227398068063 3.6222081999993221 4.3502397635155754
2.5095483055124133 5.7949326003489832 4.3458093311792609
1.2556549888034569 7.9666713685938699 4.3463546202649850
0.0002029443228658 10.1403032198742746 4.3416854349152141
-1.2547894412857823 12.3136537675290469 4.3365180381490429
7.5275546697255251 1.4490244211559857 4.3502140452567115
6.2728143929866391 3.6221669859785748 4.3486909443470001
5.0182142000333787 5.7953806780177111 4.3359146391718664
3.7639600075743305 7.9673740181624808 4.3272132508787928
2.5104126153393400 10.1399026872741000 4.3463351854444525
1.2548971458330704 12.3135769053356015 4.3493815451876872
10.0369690650114656 1.4488587971645859 4.3454500676129815
8.7819912900708932 3.6218820106242418 4.3446744146652891
7.5270952353916494 5.7948045481849073 4.3406998769577987
6.2721560041146631 7.9671954803576535 4.3359241971260758
5.0182098975649589 10.1399100381572413 4.3458561875596926
3.7643249347672310 12.3133920971104018 4.3508251842605601
12.5460797471120209 1.4486819765122265 4.3366824211645358
11.2912855342344738 3.6216220400567805 4.3340074344713777
10.0364133230685457 5.7945300154729438 4.3446601089507482
8.7815799622511488 7.9673243307694772 4.3486312617337983
7.5270484955043129 10.1400781088567555 4.3502575057241035
6.2729503309008541 12.3132597571940039 4.3492386393399887
1.2543724904784506 0.7244524087441770 7.6862438011554213
0.0000884454480635 2.8973629140109391 7.6834586035010277
-1.2544980857818222 5.0699821703059200 7.6870705143929152
-2.5093989618071904 7.2428446293587152 7.6940190418871399
-3.7642243859415254 9.4160096675701492 7.6872110152315862
-5.0188281544817297 11.5891071548846689 7.6828520047365796
3.7635227935452087 0.7246872266157933 7.6828532305384849
2.5092852929972689 2.8976973127769385 7.6939736742414819
1.2551316115903528 5.0704565734599454 7.6952071831165441
0.0003755083640293 7.2427063642207612 7.6937682052565233
-1.2547429642665453 9.4159643722499577 7.6834200387922627
-2.5095588220875782 11.5892722661868977 7.6726927327416767
6.2728490981588472 0.7247549461408486 7.6872573667538671
5.0183159210824755 2.8978861440938943 7.6941676537801458
3.7641377616300975 5.0711898624668548 7.6864941832872438
2.5106141889955151 7.2437664453241064 7.6826895070391164
1.2557858575414955 9.4154255602901866 7.6829407489527206
0.0000571849302712 11.5892619197123281 7.6833944658139899
8.7823459317723973 0.7246644613685475 7.6939856060381491
7.5274341842934751 2.8977497881134271 7.6940209789248639
6.2726563733902276 5.0708211136752031 7.6838583196983565
5.0179400085832215 7.2434179904243177 7.6731780228991493
3.7639777368960914 9.4145784861953796 7.6826853310282130
2.5097792148850702 11.5889637389348739 7.6937078724226531
11.2916159498435213 0.7243573889618196 7.6870404455082513
10.0367052949909645 2.8975058109732204 7.6829345294464169
8.7817504724970448 5.0704598593168155 7.6863891641602242
7.5268897282814553 7.2431424717691160 7.6838322905786329
6.2723101691004395 9.4153193641336284 7.6865383274526922
5.0184479279758394 11.5884740690797265 7.6952636209400636
13.8005173120011051 0.7242025093624610 7.6835058304693060
12.5459601766193458 2.8972690903437028 7.6727594053037373
11.2911265950455828 5.0701528707290295 7.6829429611487665
10.0362788834970473 7.2430467846599909 7.6939592598102964
8.7816029707615488 9.4158624470827306 7.6941421942037573
7.5272510559343528 11.5887643031055525 7.6940655527708310
-0.0018926620805811 1.4497299786344253 0.9966947426856002
-1.2535179525473354 3.6250774066830345 0.9902924854328206
-2.5047823264149529 5.7967150092067596 1.0067776866444444
-3.7568539699358747 7.9676615835435918 1.0156601156587532
-5.0155527913955185 10.1403705918060645 1.0077408707838458
-6.2717950994322580 12.3148847928618324 1.0058595962760273
2.5084757862791296 1.4468591989391777 1.0058550944883133
1.2480600535209392 3.6144332246315343 1.0129397526208379
0.0079085100062477 5.8077038339993550 1.0152146188599833
-1.2415500057437012 7.9706452773860059 1.0127195811767320
-2.5087902768548060 10.1402897506864154 0.9909022591180946
-3.7628372636087519 12.3128256737691295 0.9872811513355844
5.0198455606998351 1.4462179186273911 1.0078745745027113
3.7625137749986859 3.6147626922668632 1.0161453443296633
2.4953942612262550 5.7704894238585895 1.0083037784161635
1.2827874969533344 8.0015424098104209 1.0087809354438753
-0.0059891243915247 10.1438819220464715 0.9987109082943548
-1.2542779506331512 12.3130945425917417 0.9909682392788302
7.5308804052613354 1.4425443943705227 1.0157305321956682
6.2749680390179101 3.6166661454554809 1.0136212166037601
5.0133929558101453 5.7859038383786388 0.9885596385800994
2.4937795505384210 10.0989835174844025 1.0087674105064621
1.2583736011786837 12.3004949033913444 1.0126490874290344
10.0370778232557072 1.4437295278962505 1.0066612405672988
8.7828743617749989 3.6202462581573505 1.0072507444832945
7.5243529152391142 5.7963909188376226 0.9989405590680530
6.2779597265076221 7.9761182989781174 0.9886329728011808
5.0323040851571443 10.1643931244014958 1.0084339924013825
3.7563233634531632 12.2999453891353010 1.0151372385669541
12.5434721441044825 1.4459621641854814 0.9902376692102469
11.2923398195950924 3.6210195529548814 0.9869393631934429
10.0382772795179172 5.7945898516239103 1.0072379364127051
8.7874260924504455 7.9682163006282956 1.0135449085284554
7.5328482022467433 10.1449432312957768 1.0162123128437144
6.2759022188255758 12.3226082717350138 1.0130165301223446
1.2544121935599386 0.7244346006397785 4.3457040809226166
-0.0001372218363998 2.8972944118315231 4.3429788388437949
-1.2546633408602399 5.0700959844999360 4.3466026568157501
-2.5091289285281557 7.2430702600122645 4.3540775442297042
-3.7637584833418911 9.4161030914027339 4.3461793243129154
-5.0184781971744430 11.5891431412122365 4.3414771082410208
3.7636704698817565 0.7243729949038363 4.3415138974268235
2.5090854013480102 2.8973083318608395 4.3541644817215923
1.2544298315599320 5.0701082648530669 4.3546560722236469
-0.0000759911088093 7.2430515969988027 4.3539580995607539
-1.2545815978071733 9.4160941570396393 4.3424297370301810
-2.5092517794409428 11.5890994681948687 4.3300916185175033
6.2730028396702666 0.7243114658167171 4.3462537849208580
5.0183472437540635 2.8972452477515973 4.3545215501343817
3.7636362869500601 5.0702500130718846 4.3466327589623308
2.5085127401497305 7.2428665868232249 4.3432309715845818
1.2545867848742069 9.4161162319309497 4.3439116381539771
0.0000263397808487 11.5890621096694435 4.3424065109209780
8.7822857987694611 0.7243226699277727 4.3540240240272672
7.5276013661145829 2.8972375068634046 4.3538670683669398
6.2729042683022449 5.0702288630484968 4.3432629518759294
5.0184250378185542 7.2431452366216602 4.3324600522816494
3.7637082481013824 9.4168550661113617 4.3432499929809847
2.5092530441222776 11.5891866108570554 4.3538882489027344
11.2914377849870426 0.7244467100836826 4.3465301523532966
10.0368133890933038 2.8972961393471710 4.3414330804592396
8.7821476006132198 5.0702336948343278 4.3455773300233425
7.5275317467733718 7.2432305140766386 4.3432350403468059
6.2728785832676222 9.4162345435574704 4.3466849922370008
5.0183952279121424 11.5892636506836233 4.3547012000197691
13.8004656738033944 0.7244372069131257 4.3429970255900612
12.5459017641501607 2.8973059872287932 4.3306898309146566
11.2913629167553609 5.0701681125106486 4.3414618285211910
10.0368114687188683 7.2431631710093658 4.3538013828415414
8.7821780260473599 9.4161631652328754 4.3544632787552970
7.5274922152891675 11.5891401316958245 4.3542130552642355
7.5274090654357559 13.0377062604308822 7.6915952458410661
-1.2546548778942639 2.1730013915181288 7.6764536242614492
12.5459471364759274 4.3458933606360182 7.6784670774475838
11.2913426998677604 6.5187843889709640 7.6961096276430654
10.0367988196889559 8.6917890899130263 7.6987632527369421
8.7821047076863650 10.8647921401595351 7.6959160952590242
2.5090310888536300 0.0001117501703166 7.6841501948520659
1.2545089034070955 2.1731051884145676 7.6915139317898173
0.0001017708934796 4.3460614085834299 7.6925263001229514
-1.2545647233879964 6.5187673741880632 7.6987918371466559
-2.5091956955476165 8.6917085545716208 7.6926681745160819
-3.7638487064481407 10.8647750464039436 7.6784637190031280
5.0183336992643595 0.0000632383429414 7.6784988677770665
3.7637223339539831 2.1730040984840118 7.6958846715658389
2.5092353488230135 4.3460918424769668 7.6991722338845401
1.2548104450582764 6.5192215179496431 7.6984397571433485
-0.0001019103366356 8.6917765126885715 7.6923394281614454
-1.2546535308333233 10.8647895285066429 7.6768859649131524
7.5276584678892711 0.0000731443862702 7.6926607668593245
6.2730101242732301 2.1729454871359302 7.6988522907758208
5.0183743660854487 4.3458628512707422 7.6915266974172418
3.7638090860357098 6.5187529589584914 7.6742079882021885
2.5086145781201679 8.6921383635822806 7.6769292602736794
1.2545729610927492 10.8648575654241881 7.6922827724182143
10.0368627961223691 0.0000379348390992 7.6987088121751182
8.7822265952148495 2.1730178002148195 7.6961186722777555
7.5275026586433391 4.3459500359014012 7.6913228185960758
6.2728366185373172 6.5189401176183166 7.6765137219106947
5.0184835395719194 8.6918362549962502 7.6742112400422542
3.7635839052639741 10.8643867783155645 7.6984267836895475
5.0183065886449789 13.0375382891785456 7.6925654243593176
11.2913740181255235 2.1729830314852667 7.6784389454246060
10.0367019441405034 4.3459492280087533 7.6842455142637789
8.7821006794915615 6.5189024593563838 7.6912669583665689
7.5276137761029176 8.6918388401696625 7.6915219954908833
6.2728457872664363 10.8646235796825650 7.6992871432672798
2.5093087872002724 8.6917185150923650 0.9998282663319261
3.7030116657058936 8.0025624706828413 0.9857412849488346
