rBN 3-layer slab
1.0
15.0551462173000008 0.0000000000000000 0.0000000000000000
-7.5275736112000002 13.0376828894999992 0.0000000000000000
0.0000000000000000 0.0000169606000000 10.0278787613000002
B N C
107 107 2
Cartesian
1.2514938022266553 2.1678821766929026 1.0066346009267857
0.0015581031555549 4.3503498579491753 1.0049298938679900
-1.2505775482472907 6.5202548278781647 0.9979119217932877
-2.5040961695579442 8.6917747100964924 0.9925528826473363
-3.7648711315952443 10.8640751801481255 0.9943049916124888
-5.0183699376327109 13.0365261968491950 1.0013665168460011
3.7637533517445667 2.1687781992044175 1.0140182871771002
2.5018338044863264 4.3275144974256587 1.0116525608500679
1.2710068903340341 6.5218517192295309 1.0055008206780123
0.0032247411368968 8.7038841531848608 1.0000507533638436
-1.2616565692771127 10.8677075347052803 1.0024439436579362
5.0174436616346343 -0.0003964230682216 1.0095990347693840
6.2748826329923011 2.1690039738280977 1.0163224122850032
5.0185457439141405 4.3417883869128833 1.0131220562032772
3.7425394159896710 6.4957402702099847 1.0068636091298935
1.2447448840936419 10.8542464771486600 1.0044399559693209
0.0015639069732873 13.0316289594244985 1.0117965915624003
8.7827303897911513 2.1703919175795328 1.0113883970179469
7.5261366790280499 4.3461831431787479 1.0084854829324656
6.2631313165618820 6.5234311191780536 1.0007077040517436
5.0268150943517123 8.7200817233975414 0.9967682861384304
3.7683932511657172 10.8473241898308146 0.9991525509642771
2.5089496308561996 13.0317740294483553 1.0065394046100107
11.2902956853804781 2.1707482358905796 1.0042958818006360
10.0366791736503647 4.3447472569099670 1.0017476027554697
8.7802208532082684 6.5182512975632925 0.9938204954349670
7.5302749807964302 8.6920552236636386 0.9883355016678561
6.2841973730804890 10.8785893842933703 0.9905080867938932
5.0142402838646891 13.0323085024232199 0.9988458442406332
13.7984203565794168 2.1729323200247315 1.0018067664516139
-2.5088693220119103 4.3460727150154339 0.9999483739515496
-3.7622907879066299 6.5178674763106219 0.9924255141891294
-5.0149290758649610 8.6904420703336580 0.9866278527950052
-6.2703603315971259 10.8651589790685392 0.9883291063350571
0.0017941419769508 0.0034295085803789 0.9959667448422963
0.0000517799021264 1.4487456646412171 4.3439138334167016
-1.2545032813430907 3.6215321744351656 4.3446650712694499
-2.5092304002864503 5.7944218307205757 4.3390473927515050
-3.7640976378649014 7.9675097406141937 4.3326703381046059
-5.0188385131596460 10.1404968022105120 4.3318110079247738
-6.2732032124738799 12.3134791999280147 4.3373443473681714
2.5091556299372728 1.4490115454313750 4.3497081794316985
1.2547326213431143 3.6217488987883537 4.3502955085006301
0.0002722363509231 5.7941976888187412 4.3450701132700118
-1.2545220541307720 7.9673277317809674 4.3396445982263039
-2.5094086353735596 10.1406232781685830 4.3391855226849536
-3.7640356405346536 12.3137126075453409 4.3441260845561889
5.0183035468192498 1.4492635912671619 4.3559178669222343
3.7638930099740961 3.6223975975137357 4.3551748894045543
2.5095982931236942 5.7950809360591542 4.3501379392400956
1.2558280068807333 7.9668134006832734 4.3457599151975268
0.0004123930341419 10.1404391159913985 4.3456958476845990
-1.2546595378286534 12.3137893420646645 4.3510193881429098
7.5275939488711963 1.4491623155458089 4.3561869001322489
6.2729257866403243 3.6223475979233655 4.3551303727240862
5.0183393618619663 5.7955497888074419 4.3480990555170074
3.7641119231501943 7.9675147525414767 4.3363826751194603
2.5105952714837731 10.1400684090543578 4.3453810216125532
1.2549697698077396 12.3137086809678049 4.3510011167414282
10.0369963660906887 1.4489623554061803 4.3502465420095131
8.7821213321634222 3.6219531024379399 4.3497006665075224
7.5272590519791533 5.7948989061930334 4.3428395584141004
6.2722375370841350 7.9673384084849426 4.3358950206217388
5.0182749749021056 10.1401424753817793 4.3375063615968683
3.7643669040795888 12.3136008285038816 4.3440992033420152
12.5461627526075645 1.4487898362147753 4.3441009353332500
11.2913946029408034 3.6216953559946967 4.3443976707733070
10.0365410173070746 5.7946344735302899 4.3380312182838994
8.7816075558843139 7.9674445782276040 4.3311925434653711
7.5270374672230300 10.1402385756512334 4.3305989565331551
6.2730202031677198 12.3134365889843576 4.3374381442894228
1.2546012084586180 0.7245810471005872 7.6864661193243915
0.0002327725477627 2.8974772536254605 7.6896999897597968
-1.2544243390898382 5.0701710578894570 7.6854442581519704
-2.5093076006879378 7.2431266324686439 7.6779252239454765
-3.7641266689226089 9.4162652223997192 7.6748515757776268
-5.0186631408925431 11.5892800657036510 7.6790759515162730
3.7637338952683339 0.7248788095442852 7.6942050609583656
2.5094292060717556 2.8978707132849335 7.6967548957326510
1.2551867385470152 5.0706121601652550 7.6933913385850436
0.0004942553431455 7.2429251738506037 7.6857986187241183
-1.2545557163878296 9.4162119281267831 7.6832242624742211
-2.5093627721174370 11.5894785799187225 7.6873537322669350
6.2729816127186675 0.7249736789440330 7.6994995973609610
5.0184599802410617 2.8981486507412799 7.7012942844298822
3.7642623534900039 5.0714096704830611 7.6955327849655477
2.5107840180706225 7.2439289761747920 7.6896222134176062
1.2560174264718071 9.4156323313920360 7.6850896844607011
0.0002402460102394 11.5894564393997825 7.6926371326248821
8.7824210993625424 0.7248510631755448 7.6965700152738208
7.5275744772234541 2.8979410732065016 7.6989398737005583
6.2728561669379088 5.0710323005452356 7.6939078550788098
5.0181220284424519 7.2436271582669622 7.6865302433053291
3.7641967387770969 9.4148501320006464 7.6840429421937708
2.5099304592320983 11.5892163425904222 7.6892926500957328
11.2917126042615461 0.7245789238847453 7.6888196284636035
10.0368476950961902 2.8976369943964331 7.6917515361527498
8.7819600182969886 5.0705962243329186 7.6865622799649520
7.5270392131860389 7.2433144703870846 7.6790339889644299
6.2724155019542804 9.4155769553148492 7.6751412182397498
5.0185743677592294 11.5887859659947043 7.6817648482576129
13.8006895003992511 0.7243901809215042 7.6837933320193237
12.5461057027526390 2.8974097810675277 7.6872097745182071
11.2912747293681601 5.0703299087482225 7.6825320839405382
10.0363779384844687 7.2432606088735874 7.6745097047542750
8.7816546391891812 9.4160702744593241 7.6712666280113231
7.5273760878118967 11.5889861390978979 7.6759151848895808
-0.0024160067979333 1.4488270557767562 1.0040052591682576
-1.2541057146696075 3.6241685703763080 1.0050074737175096
-2.5053350313959664 5.7959217294823411 0.9984257625621272
-3.7573734363780953 7.9669159792032263 0.9909924107719776
-5.0161176493238022 10.1395792148636676 0.9895838505869868
-6.2723203417175677 12.3140335401228302 0.9961026704333590
2.5079611355914455 1.4460102322877382 1.0113319910756018
1.2474521821280911 3.6135698119410704 1.0116500082607225
0.0073053038402123 5.8068803544921073 1.0057792507919150
-1.2420538292183194 7.9698948106708389 0.9984568342111036
-2.5093012988240542 10.1395064964232109 0.9978880338842859
-3.7633492902180263 12.3119916524267481 1.0043175674123166
5.0192669920237796 1.4454518351843988 1.0185064804071760
3.7619301398949121 3.6140068075209992 1.0178709277162874
2.4948376802105341 5.7696793773152963 1.0118875229900759
1.2823356539976980 8.0006990321002505 1.0056235851991304
-0.0064432370455271 10.1430271895721784 1.0049728097418171
-1.2548357944219748 12.3122507002372110 1.0120960508550720
7.5302375233714161 1.4417142730372601 1.0179012643780938
6.2744236247163556 3.6158977582018412 1.0175473517214098
5.0129174459516967 5.7851192100166378 1.0097740105695752
2.4933204123715407 10.0981275670747532 1.0047186813219837
1.2577619747988713 12.2996381633383596 1.0109226471074799
10.0364405319297560 1.4428543087100589 1.0110136572533348
8.7823552554069924 3.6193515390131448 1.0109127595840355
7.5239191852280474 5.7955324449441354 1.0034119928506322
6.2774765627245674 7.9752913418517064 0.9961175201248190
5.0317427400656429 10.1636041828140513 0.9959470122461233
3.7557049493205192 12.2991459647439232 1.0038084393310958
12.5428906350752740 1.4450998832657911 1.0040864278957256
11.2917956330784008 3.6201232760254451 1.0046610718920970
10.0377892784071925 5.7937409517900225 0.9972862120459083
8.7869221741854666 7.9674210404126384 0.9894681887784293
7.5322328624542143 10.1441834124754866 0.9888787118821210
6.2753121917060097 12.3218273856219689 0.9960615814015420
1.2545941942383181 0.7244856760700014 4.3458970070075065
-0.0000409551683001 2.8973515042177613 4.3491268240662908
-1.2546376517784243 5.0702393275178093 4.3450091505842448
-2.5090770336248287 7.2433102746819378 4.3377343785593734
-3.7637143142039027 9.4162938260360676 4.3347807762241057
-5.0183705607243656 11.5892339953824859 4.3387261131432471
3.7638284755239826 0.7244957705684139 4.3534855602258746
2.5091719504676462 2.8974316716952302 4.3558163595479158
1.2544308347541400 5.0702264723701225 4.3518804211247852
0.0000153191768856 7.2432268946960709 4.3446234049665060
-1.2544227031957536 9.4162795739406544 4.3425423274322226
-2.5091079887997219 11.5892304068606737 4.3468199018064402
6.2730698840469232 0.7244676593365570 4.3585716981508416
5.0184281938864279 2.8974629359381150 4.3603567246544577
3.7637015725564966 5.0704291317456844 4.3552772355780185
2.5086286708780521 7.2429842271223848 4.3504263379183810
1.2548078658059778 9.4162404866405609 4.3449847168207949
0.0001590031865569 11.5891746551080725 4.3517523825668665
8.7822935324222691 0.7244425079889494 4.3559185970098016
7.5276876788738365 2.8973740414616858 4.3579849788584148
6.2730590524552516 5.0703842956565994 4.3528413873345215
5.0185578182456840 7.2433001948055491 4.3466224941513838
3.7638684310579595 9.4170677099327449 4.3450991557012175
2.5093405261859716 11.5893597700475635 4.3482530146893659
11.2914736662552553 0.7246085539174576 4.3484561479046242
10.0369122469133440 2.8973690172363900 4.3511449834820750
8.7823281395650739 5.0703070640064176 4.3460036346480475
7.5276359597277516 7.2433363296998010 4.3383305944925024
6.2729073294136626 9.4164237670241651 4.3351586955100192
5.0184486408012496 11.5895117044291798 4.3408319809034497
13.8005869041817100 0.7245579888016259 4.3434783407660493
12.5460041359887526 2.8973897913441200 4.3467013627084832
11.2914797229212667 5.0702923334141667 4.3421535726059233
10.0368718494816669 7.2433154960014061 4.3343903639120587
8.7821589638614554 9.4162964621894876 4.3310143309910467
7.5275495334341986 11.5892822859068989 4.3354459603385100
7.5276058437110702 13.0378875281651343 7.6836890484202591
-1.2544891859293867 2.1731446523070885 7.6897018629667500
12.5460699910771165 4.3460550411914127 7.6876385934998428
11.2914556171017644 6.5190208651791703 7.6794963383205399
10.0368593360489111 8.6920204984896987 7.6733819001387502
8.7822061747875360 10.8649841168041927 7.6755472575872554
2.5092662955301237 0.0002566848142285 7.6892486519685237
1.2546897360760147 2.1732262385804875 7.6947332010648637
0.0001566379167573 4.3462043770525796 7.6929435190145856
-1.2544881676376325 6.5190146999125336 7.6853400459143453
-2.5090717653390366 8.6919962736934053 7.6801934822661844
-3.7636843047078203 10.8649860814672916 7.6818433645710424
5.0185164707354115 0.0002580311179455 7.6979104098692295
3.7638866654581915 2.1732279621416226 7.7021623942866198
2.5093102548323389 4.3462820478041984 7.7000375840359840
1.2548827823745941 6.5193870206427178 7.6951327558913594
0.0001003065829228 8.6919889114108226 7.6893076869064316
-1.2544438905703206 10.8649892239524899 7.6911396912632188
7.5277609928550859 0.0002536924125777 7.7012034507067737
6.2731259114547804 2.1731863569919736 7.7052751873129948
5.0185254835338098 4.3461316224471975 7.7011880795889978
3.7639839896989682 6.5189630283519495 7.6896535135938597
2.5088677711962024 8.6923057238079462 7.6836669096351606
1.2547845693697703 10.8650439472155806 7.6942978461792579
10.0369424365583910 0.0002642554985807 7.6951147365023269
8.7823315774587218 2.1731804457370210 7.7001393066941164
7.5277050268658288 4.3461298521353235 7.6966894156789412
6.2730252850507320 6.5191352994256446 7.6887978758422468
5.0186210434180909 8.6920312856922433 7.6794751997981248
3.7637554053549187 10.8646995301426532 7.6890944624622906
5.0184315878794763 13.0378135842863383 7.6867371180180255
11.2915093414466554 2.1731531839307046 7.6924553975147809
10.0369025003237482 4.3460766267582569 7.6895809269373752
8.7822629713935392 6.5190554182797484 7.6808660882297479
7.5276803394422060 8.6920257850657165 7.6749593390958024
6.2729430721379025 10.8649099712061190 7.6782656078243186
2.5088657021786136 8.6908823080437276 1.0051420689063038
3.7025617155353796 8.0017379742467192 1.0063527968234405
