rBN 3-layer slab
1.0
15.0551462173000008 0.0000000000000000 0.0000000000000000
-7.5275736112000002 13.0376828894999992 0.0000000000000000
0.0000000000000000 0.0000169606000000 10.0278787613000002
B N C
107 107 2
Cartesian
1.2519248590766008 2.1688358090691078 1.0335421573517156
0.0019706573871744 4.3513224319412354 1.0257503495334594
-1.2501479540520681 6.5212109663654960 1.0026371751882170
-2.5036125916935847 8.6926975414757770 0.9851870556187450
-3.7644092983257682 10.8649600812803531 0.9918181225772263
-5.0179373220425241 13.0374194982801725 1.0166611457803967
3.7641626965581443 2.1696251279520347 1.0087299922450987
2.5021888910854213 4.3284400271804602 1.0142345965547910
1.2713371378253495 6.5228053571776803 1.0061713528719098
0.0035976664306052 8.7048204657345121 0.9899810427065149
-1.2612607477467193 10.8685772321491729 0.9817998091028817
5.0178707203684443 0.0004146758931446 0.9921650024221818
6.2753181686634498 2.1697247439112899 0.9880473478100984
5.0189177441805084 4.3425991546416167 0.9928602112247193
3.7428424281190917 6.4966412606018737 0.9958796341717556
1.2450981899038283 10.8551055370434195 0.9902440068923857
0.0019951969534841 13.0323922172682209 0.9857962860291957
8.7831917854911143 2.1712248178782882 0.9918555800339779
7.5265461970205418 4.3470250560632886 0.9831750957151195
6.2634609294509600 6.5243326885000146 0.9850198079619009
5.0271317966067661 8.7210185966304365 0.9958597360400029
3.7687210898798855 10.8482516027034457 1.0063838700937673
2.5093599749648390 13.0326419969132168 1.0031739943848290
11.2907836847723519 2.1716660845630531 1.0159115221148316
10.0371727705023677 4.3456535536225740 0.9943016358073455
8.7806691985576126 6.5191559760018292 0.9828451472252135
7.5306931512168909 8.6929671702548248 0.9925064640694259
6.2845878635738934 10.8795181606098410 1.0141636765130335
5.0146625669656117 13.0332537965589523 1.0259894432192018
13.7989014535014505 2.1738936312918939 1.0367092074703095
-2.5083743342640714 4.3470264996360344 1.0156332853079864
-3.7617873226330034 6.5188092835964788 0.9912479853753522
-5.0144257203029428 8.6913634154780155 0.9873778347351696
-6.2699181855594022 10.8660644794241517 1.0083567579275667
0.0022186485021240 0.0043597499719879 1.0335188426500339
-0.0001006803229365 1.4486738957551715 4.3764817008653738
-1.2546274727056961 3.6214671597480268 4.3684944119342468
-2.5093000424758798 5.7943416208321468 4.3454552787126621
-3.7641322094929408 7.9674095561809297 4.3302458826060093
-5.0188972691862759 10.1403949484451239 4.3380806150583906
-6.2733209862626413 12.3133928993152431 4.3611744910129238
2.5089840356056379 1.4488928972615078 4.3613196863693071
1.2545357332394065 3.6216722689274072 4.3668371270517534
0.0000977235063858 5.7941314587209494 4.3533079853197414
-1.2546426740179608 7.9672153905010328 4.3344891930281539
-2.5094934928410226 10.1404751996513909 4.3288561434762922
-3.7641474359569531 12.3135594182948189 4.3422725823106223
5.0181337858099422 1.4490668365223349 4.3385628446764120
3.7636698158188304 3.6222580967768820 4.3474826088487406
2.5093556315713568 5.7949820148568554 4.3477842249740517
1.2555874987438707 7.9667027609576913 4.3390631597467797
0.0002286450142180 10.1402744225934640 4.3291732553349132
-1.2548062421018260 12.3135809674157635 4.3291882994584379
7.5274449827544343 1.4489425799034688 4.3309090658507872
6.2727575650788561 3.6221598233363275 4.3305136785652882
5.0181168912254961 5.7954138861648774 4.3334205674023885
3.7638670080612360 7.9674123354475048 4.3310651421342286
2.5103393614868690 10.1399239574847311 4.3392449373000703
1.2547838693796192 12.3135184525531596 4.3350039852775408
10.0368626986701948 1.4487971328710971 4.3459719817805000
8.7820233995279864 3.6217872113471783 4.3323336479529990
7.5271384216224808 5.7947640060602543 4.3263071858154181
6.2720640622399291 7.9672395026192051 4.3332718956132785
5.0180570457195133 10.1400284642805101 4.3478232263820997
3.7641631736200578 12.3134607245737850 4.3536816909735663
12.5460272414368941 1.4486952337050674 4.3686829790094563
11.2913170418385462 3.6215893103439254 4.3512085741363391
10.0364985530605111 5.7945277035577538 4.3320029086160075
8.7815423895871145 7.9673524293860769 4.3300307066886043
7.5269135355279531 10.1401611447018514 4.3471883016688810
6.2728515932143489 12.3133492569580856 4.3668836399353648
1.2545547327985735 0.7243536403921113 7.7154112886126267
0.0001924333047022 2.8972744170608937 7.7207423178590728
-1.2544195852179705 5.0699669175801549 7.7016107079414242
-2.5092562876007918 7.2428953078175340 7.6770849716945557
-3.7640724275240376 9.4160151321548202 7.6717904305475857
-5.0186580561104659 11.5890331258368207 7.6908478263417841
3.7636795261553888 0.7245894356003010 7.6911046983414630
2.5093402040846482 2.8976319934815971 7.7058590914284419
1.2551089590785354 5.0704170616842221 7.7032796649785764
0.0004393006711100 7.2427058459683966 7.6843253668951501
-1.2545709882003526 9.4159393270488003 7.6694948106201464
-2.5093766830274253 11.5891760100623795 7.6727357687998072
6.2729290816316734 0.7246340849610913 7.6724025267237703
5.0183782907104906 2.8978371280822794 7.6809110317652767
3.7641366911201697 5.0711596132260990 7.6860259470769305
2.5106602078348765 7.2437079139436547 7.6844764898064755
1.2559157189922843 9.4153609372160822 7.6732639439880233
0.0001727305111119 11.5891388855999988 7.6698419539953608
8.7823801464216160 0.7245301065635374 7.6777822330511665
7.5275488820698211 2.8976186854521302 7.6710295997787492
6.2728045593455333 5.0707407083508418 7.6710143275777236
5.0180196122477563 7.2433844263802332 7.6776233538770775
3.7640598573513597 9.4145844125360778 7.6845588545687304
2.5098186024390761 11.5889240806961684 7.6847563104846479
11.2916739187307069 0.7243106784020635 7.7020539175951486
10.0368712807945961 2.8973579926096376 7.6859585668917036
8.7820000121429427 5.0703270933049343 7.6700554265092187
7.5270432452911971 7.2430709448983741 7.6707559635795741
6.2723444954635683 9.4153516127804888 7.6858569469448286
5.0184771022196157 11.5885267672807384 7.7034587087050408
13.8006513065873584 0.7241661287709604 7.7208357460555854
12.5461218495094151 2.8971836564511171 7.7108106084475008
11.2913464101364909 5.0700979127793921 7.6856094225228855
10.0364587988358895 7.2430287366406416 7.6704186630306319
8.7816843529123023 9.4158475239275656 7.6803961994580003
7.5273419407917155 11.5887608643569511 7.7057008293341118
-0.0019545638155382 1.4497662792353128 1.0448977370203212
-1.2536438066150117 3.6251144280605305 1.0336400303873949
-2.5048733365729952 5.7968688717323191 1.0058154575681026
-3.7568743337597255 7.9678487148593744 0.9877044940942256
-5.0156537667069268 10.1404855688210933 0.9971873050918298
-6.2718881914618088 12.3149246857735744 1.0263141154711044
2.5083941263336706 1.4469158582987414 1.0264830937866867
1.2478580807573494 3.6145244793444911 1.0316009751821020
0.0076866889787773 5.8078385775564740 1.0157550395726360
-1.2416194121343771 7.9708303092770203 0.9928084558578893
-2.5088562188173804 10.1404016080450905 0.9847980709663910
-3.7629061171036393 12.3128620897230476 1.0022007196514731
5.0196936443440023 1.4462415259206085 0.9977674995228191
3.7622950711754597 3.6148649658500100 1.0087479689083565
2.4951618387531616 5.7706081684378008 1.0083586583449655
1.2826713249045776 8.0016428242347022 1.0002775548568446
-0.0060893902086236 10.1439404684201957 0.9855873656658396
-1.2544087421733023 12.3130919391936864 0.9851984641972791
7.5307066541644190 1.4424672734592114 0.9884657736420749
6.2748404987095148 3.6166379463209921 0.9881225290916711
5.0132461484555035 5.7859678029232100 0.9916467981557923
2.4936346270222649 10.0990373814412173 1.0004522126074697
1.2581790165254045 12.3004657726164179 0.9933644088402882
10.0368986897790151 1.4437323604894006 1.0063902859610261
8.7827990912359191 3.6202220067197324 0.9898852852105482
7.5242870677096256 5.7964237109408607 0.9830725424512617
6.2778292992368625 7.9762107475974622 0.9915114232054728
5.0320847416432830 10.1645354372767169 1.0083969805958890
3.7560961040852088 12.3000709233878336 1.0161234885941282
12.5433774190888947 1.4460505983294003 1.0338453674329402
11.2922765707612420 3.6210552688852418 1.0129155378210586
10.0382591799049887 5.7946657820811076 0.9894984563476136
8.7873838165838034 7.9683363148802622 0.9875619373233480
7.5326473719017351 10.1450786085535487 1.0084190242507356
6.2757219840109393 12.3227360570296529 1.0316575284602822
1.2544539694292889 0.7243929706255731 4.3733933554600926
-0.0001942476613333 2.8972832538525153 4.3783740511184526
-1.2547618773597868 5.0701695259687396 4.3602008909016936
-2.5091613260288814 7.2432126187087631 4.3369510284660926
-3.7637764833382916 9.4161763326214043 4.3320060952853785
-5.0184624629097367 11.5891160526935462 4.3501734821610567
3.7636861046190364 0.7243446203904684 4.3504302982961409
2.5089869016976798 2.8973261337182845 4.3640650588429963
1.2542404412644221 5.0701546991801703 4.3605342851219557
-0.0001612021848624 7.2431296627411763 4.3428291136768680
-1.2545537360137040 9.4161407576970007 4.3291414791105636
-2.5092197265812017 11.5890646162968149 4.3328456891488729
6.2729176137396419 0.7242660155419010 4.3326037871670984
5.0182507485292449 2.8972921972121637 4.3405558132371524
3.7634840675483270 5.0703076934791502 4.3454468803275486
2.5084017293530807 7.2428826837232867 4.3445873624015627
1.2545950033691187 9.4160974898191583 4.3327360946957727
-0.0000121728845234 11.5889929448815003 4.3294809086528625
8.7821357225754166 0.7242584213072742 4.3376284560393064
7.5275477647034226 2.8971865013635463 4.3312493969787633
6.2728956538410223 5.0702253414584142 4.3308818497605692
5.0183546014168448 7.2431700785823043 4.3379258132396705
3.7636256179397276 9.4169198879052249 4.3446623587915454
2.5091303291980447 11.5891995070027782 4.3432522916576346
11.2913122944768478 0.7244727835997790 4.3606264968147412
10.0367987596984332 2.8972257410504993 4.3453622871399773
8.7822330764173770 5.0701698018697101 4.3303070105354520
7.5275157649779878 7.2432159156264859 4.3306248290118834
6.2727379947935384 9.4163134496573413 4.3452755154635883
5.0182457324068332 11.5893795507775668 4.3607150247128637
13.8004319310079868 0.7244667271346892 4.3784641223471485
12.5458838735103342 2.8973016981640862 4.3688777224607502
11.2914042943620494 5.0701951041587581 4.3450237325124279
10.0368148379751254 7.2432127561592523 4.3306530380963908
8.7820731669842260 9.4161979685323214 4.3400371566466633
7.5274128120275767 11.5891915111505295 4.3638983959686195
7.5275653010953398 13.0376580526378536 7.7224599085991263
-1.2545058629286785 2.1729218755751440 7.7265621823634749
12.5461012845691311 4.3458293775060408 7.7046797798488074
11.2915183919804551 6.5187876292041942 7.6786266567467676
10.0369069520564160 8.6917864419633091 7.6743020226809984
8.7822004145630714 10.8647581277163230 7.6960633238707059
2.5092282811101838 0.0000061308751231 7.7044600029622980
1.2546336871720649 2.1730036492089493 7.7224912399790702
0.0001221807069372 4.3460043570248663 7.7155376486239717
-1.2544879010111896 6.5187923892408817 7.6903573326732957
-2.5090468178985565 8.6917463415146301 7.6726234619746707
-3.7636771847150974 10.8647225601591231 7.6792848756240319
5.0184731066299868 -0.0000457743869383 7.6796399066405243
3.7638075113635705 2.1729512412638758 7.6964433534543977
2.5092225151434500 4.3460597085389896 7.7036816655106515
1.2548133034078739 6.5191972372007116 7.6960703745239476
0.0000391184717080 8.6917397774168617 7.6777932672586680
-1.2544797962968663 10.8646978711500495 7.6699725396300265
7.5277078472794399 -0.0000618875957365 7.6732903244780397
6.2730757007364017 2.1728673990064675 7.6750107666243981
5.0184434028090843 4.3458481460297902 7.6803768324910173
3.7638659422211904 6.5187279140404231 7.6804917155713284
2.5087679657661446 8.6920603675711572 7.6768582655258042
1.2546830922862611 10.8647674464093935 7.6781016924218077
10.0368854382697172 -0.0000262124889158 7.6909834939189619
8.7823208140492941 2.1728796075989436 7.6792898260156051
7.5276942990364066 4.3458405527765542 7.6699971148239028
6.2729813554653662 6.5188678871366381 7.6731260512663111
5.0185425068993528 8.6918178470826923 7.6804435603555756
3.7636129601117183 10.8644108128358567 7.6963329377226364
5.0183710808790201 13.0375612450884777 7.7158163314189778
11.2915134859273660 2.1728957649221674 7.7049970109028880
10.0369476464183460 4.3458178994607746 7.6820175863841955
8.7823016204836879 6.5188083274433506 7.6696425237335104
7.5276692774766714 8.6918019972947214 7.6799934378265053
6.2728738154982873 10.8646649465578680 7.7036098748391222
2.5091688136962151 8.6918016851853999 0.9989847821641062
3.7028730495799453 8.0026435489207550 0.9980251757328134
